LAMMPS (22 Jul 2025)
OMP_NUM_THREADS environment is not set. Defaulting to 1 thread.
  using 1 OpenMP thread(s) per MPI task
# Units, atoms, boundary condition
units lj
atom_style full
boundary p p p

# Bead Interaction
pair_style hybrid/overlay dpd 1.0 1.0 123 coul/slater/cut 1.185307217552 2.0
bond_style harmonic
angle_style cosine/squared
#kspace_style pppm 1.0e-2

# Load data, set velocities
read_data /home/gabriel/Dokumente/bachelor_thesis/dpd_simulation/lipid_self_assembly/setup/lammps.data
Reading data file ...
  orthogonal box = (0 0 0) to (70 70 70)
  1 by 1 by 1 MPI processor grid
  reading atoms ...
  2816 atoms
  scanning bonds ...
  2 = max bonds/atom
  scanning angles ...
  2 = max angles/atom
  orthogonal box = (0 0 0) to (70 70 70)
  1 by 1 by 1 MPI processor grid
  reading bonds ...
  1408 bonds
  reading angles ...
  1024 angles
Finding 1-2 1-3 1-4 neighbors ...
  special bond factors lj:    0        0        0       
  special bond factors coul:  0        0        0       
     3 = max # of 1-2 neighbors
     3 = max # of 1-3 neighbors
     6 = max # of 1-4 neighbors
     8 = max # of special neighbors
  special bonds CPU = 0.001 seconds
  read_data CPU = 0.025 seconds
include pair.settings
pair_coeff 4 4 dpd 102.067126235101 4.5 1 # W - W
pair_coeff 4 1 dpd 130.61559292165586 4.5 1 # W - C1
pair_coeff 4 2 dpd 121.73384773028323 4.5 1 # W - C3
pair_coeff 4 3 dpd 108.4112299432243 4.5 1 # W - Na
pair_coeff 4 5 dpd 84.93804622316809 4.5 1 # W - Q0
pair_coeff 4 6 dpd 94.45420178535304 4.5 1 # W - Qa
pair_coeff 6 6 dpd 102.067126235101 4.5 1 # Qa - Qa
pair_coeff 6 1 dpd 130.61559292165586 4.5 1 # Qa - C1
pair_coeff 6 2 dpd 126.80913069678189 4.5 1 # Qa - C3
pair_coeff 6 3 dpd 108.4112299432243 4.5 1 # Qa - Na
pair_coeff 6 5 dpd 98.89507438103935 4.5 1 # Qa - Q0
pair_coeff 5 5 dpd 102.067126235101 4.5 1 # Q0 - Q0
pair_coeff 5 1 dpd 121.09943735947091 4.5 1 # Q0 - C1
pair_coeff 5 2 dpd 117.29297513459693 4.5 1 # Q0 - C3
pair_coeff 5 3 dpd 98.89507438103935 4.5 1 # Q0 - Na
pair_coeff 3 3 dpd 102.067126235101 4.5 1 # Na - Na
pair_coeff 3 1 dpd 115.38974402215993 4.5 1 # Na - C1
pair_coeff 3 2 dpd 115.38974402215993 4.5 1 # Na - C3
pair_coeff 2 2 dpd 102.067126235101 4.5 1 # C3 - C3
pair_coeff 2 1 dpd 102.067126235101 4.5 1 # C3 - C1
pair_coeff 1 1 dpd 102.067126235101 4.5 1 # C1 - C1
pair_coeff * * coul/slater/cut
dielectric 78.3

bond_coeff 1 150.0 0.5

angle_coeff 1 5.0 180.0
angle_coeff 2 5.0 180.0

comm_modify vel yes

# Naming
include group.settings
group lipid id 1:1536
1536 atoms in group lipid
group solvent id 361:2816
2456 atoms in group solvent
neigh_modify delay 0 check yes

# Settings for thermodynamic values
thermo 10
thermo_modify lost warn flush yes

# Set veloceties
velocity all create 1.0 123 dist gaussian

# -------------------------------------

# Step 1: minimize system energy
#minimize 1.0e-4 1.0e-6 10000 100000
#reset_timestep 0

# -------------------------------------

# Step 2: relax in npt (T=1, P=1)
timestep 0.01
fix 1 all npt temp 1.0 1.0 0.5 iso 1.0 1.0 0.5

# --------------------------------------

# Save trajectories and run
dump traj all custom 10 trajectories.lammpstrj id mol type xu yu zu
dump_modify traj sort id

run 10000
Generated 0 of 15 mixed pair_coeff terms from geometric mixing rule
Neighbor list info ...
  update: every = 1 steps, delay = 0 steps, check = yes
  max neighbors/atom: 2000, page size: 100000
  master list distance cutoff = 2.3
  ghost atom cutoff = 2.3
  binsize = 1.15, bins = 61 61 61
  2 neighbor lists, perpetual/occasional/extra = 2 0 0
  (1) pair dpd, perpetual
      attributes: half, newton on
      pair build: half/bin/newton
      stencil: half/bin/3d
      bin: standard
  (2) pair coul/slater/cut, perpetual
      attributes: half, newton on, cut 2.3
      pair build: half/bin/newton
      stencil: half/bin/3d
      bin: standard
Per MPI rank memory allocation (min/avg/max) = 10.13 | 10.13 | 10.13 Mbytes
   Step          Temp          E_pair         E_mol          TotEng         Press          Volume    
         0   1              0              3444.7475      3446.247      -19.551738      343000       
        10   9.3312295      0.0016276081   91.138817      105.13232     -6.0341726      36633.683    
        20   16.098372      0.050831412    52.668492      76.858306     -4.5729197      24176.219    
        30   18.52354       0.15453417     34.599157      62.529134     -2.9842684      19302.928    
        40   17.164622      0.27093384     25.13347       51.142194     -2.1037245      16814.976    
        50   14.26834       0.38243958     19.883968      41.661318     -1.8327196      15178.784    
        60   11.325941      0.48174485     16.707347      34.17197      -1.8542012      13883.332    
        70   8.9566904      0.5623583      14.43328       28.425903     -1.9195674      12774.526    
        80   7.300821       0.61873908     12.44032       24.006401     -1.8869945      11823.491    
        90   6.2745384      0.64640532     10.465268      20.520139     -1.6763305      11034.807    
       100   5.69643        0.64218369     8.4705252      17.65432      -1.3041282      10411.246    
       110   5.360179       0.6080255      6.5392263      15.184665     -0.84904833     9941.9473    
       120   5.0834022      0.55344981     4.7990613      12.974907     -0.39346287     9603.4668    
       130   4.7480795      0.491264       3.3669498      10.977804     -0.015032817    9366.4946    
       140   4.3130467      0.4309818      2.3053441      9.2035986      0.24323967     9200.5563    
       150   3.7997805      0.37959035     1.6049419      7.682179       0.40205089     9077.3902    
       160   3.2626214      0.34054195     1.1971818      6.4299179      0.46082491     8976.3128    
       170   2.7589116      0.31360756     0.98318566     5.4336911      0.46592749     8883.5358    
       180   2.3289523      0.29695988     0.86796126     4.6571091      0.46038868     8793.6237    
       190   1.9905277      0.28596855     0.78348754     4.0541874      0.47358923     8705.3797    
       200   1.7365783      0.27707621     0.69824628     3.5792649      0.48792914     8620.6429    
       210   1.5458169      0.26751024     0.61173166     3.1971438      0.51491556     8542.0849    
       220   1.3932403      0.25509332     0.54023289     2.8844445      0.56516832     8470.8781    
       230   1.2581138      0.23978529     0.50150392     2.6277897      0.59400724     8406.3639    
       240   1.1300188      0.22232696     0.50325015     2.4200034      0.61284073     8346.8465    
       250   1.010609       0.2022788      0.53921582     2.2568699      0.62584434     8290.596     
       260   0.90770815     0.17980428     0.59296997     2.133853       0.63433185     8236.716     
       270   0.8297824      0.15592905     0.64544254     2.0456032      0.64348123     8185.0301    
       280   0.78173495     0.13191194     0.68239014     1.9864881      0.67117298     8135.927     
       290   0.76284737     0.10963326     0.69847869     1.9519767      0.6934434      8090.7871    
       300   0.76787373     0.090590137    0.69743876     1.9394305      0.7255657      8050.0095    
       310   0.78897122     0.075563998    0.68886813     1.9474687      0.75189566     8013.9008    
       320   0.81801323     0.064898203    0.68348057     1.9749629      0.77384982     7981.6131    
       330   0.849242       0.058326853    0.68881275     2.0205502      0.78159621     7951.6417    
       340   0.88093465     0.054409525    0.70685968     2.0822019      0.77725231     7922.2801    
       350   0.9144245      0.051641459    0.73408626     2.1568774      0.75833441     7891.6699    
       360   0.95265757     0.049257865    0.76350737     2.2412441      0.7244242      7858.0013    
       370   0.99764726     0.047304129    0.78809843     2.331342       0.68369416     7819.7555    
       380   1.0488927      0.045925636    0.80398251     2.4226885      0.63172058     7775.9014    
       390   1.1009043      0.046082544    0.81220756     2.5090602      0.57897731     7726.1076    
       400   1.1445375      0.049717681    0.81762932     2.5835436      0.52095107     7669.8528    
       410   1.1714575      0.057200566    0.82552728     2.63929        0.45802921     7607.0783    
       420   1.1768069      0.068011013    0.83858495     2.6711794      0.3997865      7537.8094    
       430   1.1608558      0.081107113    0.85565055     2.6774229      0.34342957     7462.6711    
       440   1.1292529      0.095316129    0.87241816     2.6610122      0.29150266     7382.8141    
       450   1.0912989      0.10861727     0.88286239     2.6278467      0.25540381     7299.4707    
       460   1.0562619      0.11934016     0.88071764     2.5838881      0.23515686     7214.6914    
       470   1.0323826      0.12610609     0.86055816     2.5346882      0.23142112     7130.4618    
       480   1.0239171      0.12782425     0.820133       2.4832876      0.24318168     7048.4442    
       490   1.0289777      0.1249133      0.76295961     2.4307913      0.26835373     6969.9385    
       500   1.0386697      0.11878752     0.69947391     2.3757128      0.2897144      6895.715     
       510   1.0410564      0.11159635     0.64450372     2.3171301      0.30443296     6825.1694    
       520   1.0268334      0.10478906     0.61135601     2.2558482      0.31316715     6757.1367    
       530   0.99418578     0.098871413    0.60559204     2.1952125      0.30758665     6690.6595    
       540   0.94939667     0.093928178    0.62220488     2.1397223      0.29416568     6624.4453    
       550   0.9042253      0.08975495     0.64821937     2.0938306      0.27884219     6558.1941    
       560   0.87110012     0.086006899    0.66858509     2.0607782      0.27581672     6492.5152    
       570   0.85849617     0.082819275    0.67232821     2.0424344      0.29527934     6428.9164    
       580   0.86813336     0.080462007    0.65652203     2.0387216      0.32967403     6368.6258    
       590   0.89574139     0.07918123     0.62654281     2.048859       0.3708557      6312.9634    
       600   0.93315919     0.078794292    0.59265845     2.0706945      0.4284817      6262.2926    
       610   0.97156523     0.078746811    0.56520911     2.1007862      0.4789988      6216.8225    
       620   1.0040032      0.078643486    0.5508119      2.1349254      0.5062138      6175.2818    
       630   1.0269858      0.078440955    0.55090248     2.1692751      0.52679439     6136.2344    
       640   1.0406455      0.077981699    0.56236317     2.2007588      0.51994779     6098.2098    
       650   1.0467484      0.077549535    0.58015003     2.2272646      0.4942307      6059.6567    
       660   1.046994       0.077401186    0.60065267     2.2479872      0.46212261     6019.6685    
       670   1.041487       0.077521592    0.62341488     2.2626123      0.42377103     5977.4623    
       680   1.0294645      0.077913558    0.65012269     2.2716846      0.37333754     5932.2561    
       690   1.0114364      0.078185724    0.68193596     2.2767375      0.31568744     5883.8213    
       700   0.99003639     0.078315319    0.71706172     2.2799043      0.26098181     5831.981     
       710   0.96988243     0.07880789     0.75028922     2.2834041      0.20302021     5776.9874    
       720   0.95728703     0.079701471    0.77461119     2.2897333      0.17896008     5720.0476    
       730   0.95699287     0.081176205    0.78384844     2.3000042      0.15786865     5662.5037    
       740   0.97134131     0.083145424    0.77541456     2.3150545      0.16515338     5605.6348    
       750   0.99808157     0.085737347    0.75183474     2.3341628      0.19262071     5551.1449    
       760   1.0307541      0.088974091    0.71972148     2.3542776      0.23560221     5500.0472    
       770   1.0615741      0.092309091    0.68711956     2.3712243      0.28267437     5452.7005    
       780   1.0837077      0.095599689    0.6606345      2.3812185      0.32215669     5408.895     
       790   1.0925031      0.098755089    0.6436893      2.3806171      0.35610489     5368.0537    
       800   1.0875328      0.10195165     0.63571069     2.3683823      0.37596695     5329.3016    
       810   1.071839       0.10527706     0.63247639     2.344941       0.37969694     5291.9194    
       820   1.0517553      0.10802446     0.62793587     2.313033       0.38351926     5255.1604    
       830   1.032794       0.10971974     0.61736924     2.2757298      0.37459498     5218.9253    
       840   1.0170186      0.11092112     0.59971529     2.2356226      0.37762635     5182.9236    
       850   1.0033532      0.1120193      0.57807469     2.1945893      0.3668364      5147.368     
       860   0.98952388     0.11275695     0.55794301     2.1544587      0.37688812     5112.1129    
       870   0.97305317     0.11311516     0.54446024     2.1166368      0.36970764     5077.1875    
       880   0.95383752     0.1133583      0.53960324     2.0832097      0.3557328      5042.2084    
       890   0.93476953     0.11313825     0.54112555     2.0559202      0.3438004      5007.1329    
       900   0.9208938      0.11195652     0.54361416     2.0364208      0.34311642     4972.4405    
       910   0.91700828     0.10989078     0.54094204     2.0258568      0.35379932     4938.4803    
       920   0.92560051     0.1068872      0.52939069     2.0241856      0.38564151     4906.023     
       930   0.94572933     0.10342243     0.50941255     2.0309252      0.42031455     4875.6607    
       940   0.97210061     0.10045524     0.48571569     2.043804       0.46773085     4847.723     
       950   0.99802799     0.098525134    0.46532933     2.0603648      0.51502894     4822.2711    
       960   1.0169682      0.098080622    0.45453423     2.0775254      0.53955819     4798.839     
       970   1.0252858      0.099013913    0.45630463     2.0927011      0.56355081     4776.9042    
       980   1.0232319      0.10142694     0.46923682     2.1049666      0.56735669     4755.8522    
       990   1.0143819      0.10466861     0.48848876     2.1141899      0.56850175     4735.0211    
      1000   1.0038539      0.10827551     0.50820728     2.1217289      0.56945432     4714.4291    
      1010   0.99547941     0.11210779     0.52376378     2.1285604      0.57249511     4693.9561    
      1020   0.99139858     0.11617115     0.533124       2.1358649      0.5685808      4673.7349    
      1030   0.99137498     0.12047672     0.53709624     2.1441074      0.57609961     4653.8754    
      1040   0.99381273     0.12471784     0.53837021     2.1532778      0.58902646     4634.5399    
      1050   0.99721953     0.12835432     0.53974507     2.1633975      0.59523031     4615.8875    
      1060   0.99999807     0.13126978     0.54257146     2.1733057      0.59297901     4597.9009    
      1070   1.0029592      0.13354128     0.54629516     2.1837409      0.61959973     4580.2757    
      1080   1.0069404      0.13462943     0.54939259     2.1938962      0.62683177     4563.1935    
      1090   1.0123745      0.13419556     0.55044832     2.2026664      0.64070847     4546.8469    
      1100   1.0195514      0.13218764     0.54895837     2.2099301      0.65843841     4531.4982    
      1110   1.0270839      0.12907481     0.54547615     2.2146297      0.68531436     4517.0987    
      1120   1.0332082      0.12563526     0.54110943     2.2160066      0.69415448     4503.8397    
      1130   1.0360308      0.12278801     0.53669992     2.2129823      0.725583       4491.6879    
      1140   1.034954       0.12129263     0.5324193      2.2055917      0.74356846     4480.4246    
      1150   1.0300927      0.12105762     0.52808369     2.1937317      0.77256513     4470.1406    
      1160   1.0223604      0.12142179     0.52377043     2.1781883      0.79125837     4460.8582    
      1170   1.012096       0.12212726     0.52032369     2.1600558      0.79410561     4452.2313    
      1180   0.99941217     0.12267646     0.51918136     2.1404437      0.81259699     4444.0032    
      1190   0.98511498     0.12272802     0.52121066     2.1210864      0.81288762     4435.9254    
      1200   0.97104026     0.12237833     0.52563859     2.1040601      0.79995902     4427.7564    
      1210   0.95950717     0.12168143     0.53025361     2.0906847      0.79127597     4419.3875    
      1220   0.95288454     0.12076688     0.53261114     2.0821973      0.78052549     4410.5138    
      1230   0.95207213     0.11987372     0.53146313     2.0789379      0.7705236      4401.0975    
      1240   0.95650959     0.11967409     0.5274593      2.0813883      0.75205373     4391.5572    
      1250   0.96426741     0.12023372     0.52265722     2.0887784      0.76531155     4381.7242    
      1260   0.97308487     0.12177887     0.51957025     2.1004581      0.76749744     4372.0355    
      1270   0.98155497     0.12383679     0.51955912     2.1152055      0.76952495     4362.4429    
      1280   0.98996025     0.12585584     0.52205123     2.1323201      0.76876953     4353.112     
      1290   0.99892742     0.12762298     0.52517444     2.1506565      0.76677373     4343.8129    
      1300   1.008944       0.12874287     0.52732536     2.1689468      0.7885283      4334.8587    
      1310   1.0195613      0.12908079     0.52838376     2.1862633      0.78804095     4326.3352    
      1320   1.0287853      0.12895227     0.52985085     2.2014331      0.79598784     4318.0475    
      1330   1.0345282      0.12823974     0.53374627     2.2132272      0.80472794     4310.1588    
      1340   1.0353519      0.12726637     0.5407913      2.220534       0.80470667     4302.4192    
      1350   1.0317288      0.12672614     0.54966339     2.2234332      0.79638304     4294.7649    
      1360   1.0259523      0.12665533     0.55745814     2.2224954      0.80730689     4287.1594    
      1370   1.0205431      0.12700426     0.56102518     2.2183004      0.7991907      4279.5223    
      1380   1.0173147      0.12761522     0.55840853     2.2114539      0.80578856     4271.7874    
      1390   1.016832       0.12804931     0.54986671     2.2026224      0.7985917      4264.2662    
      1400   1.0175987      0.12807546     0.53785        2.1917815      0.80675232     4256.8076    
      1410   1.0165868      0.12797179     0.52645017     2.1787606      0.81086045     4249.6681    
      1420   1.0113693      0.12809913     0.51948707     2.1641014      0.80593355     4242.3776    
      1430   1.0006732      0.12904726     0.51855135     2.1480754      0.79049944     4234.5241    
      1440   0.98697213     0.13028619     0.52223614     2.1324548      0.77868582     4226.2462    
      1450   0.97402178     0.13143633     0.52699342     2.1189436      0.77322699     4217.4338    
      1460   0.96526734     0.13229566     0.52900852     2.108691       0.7548496      4208.4181    
      1470   0.96267479     0.13287393     0.52577677     2.1021501      0.76625369     4199.4397    
      1480   0.9668986      0.13293505     0.51702167     2.0997896      0.79267134     4190.9743    
      1490   0.97631353     0.13238371     0.50469159     2.1010255      0.80829923     4183.5098    
      1500   0.98801615     0.13118446     0.4921963      2.1048787      0.84306871     4177.1487    
      1510   0.99839565     0.12983606     0.48310275     2.1100005      0.86559963     4171.7396    
      1520   1.0042522      0.12910905     0.47977615     2.1147286      0.88321159     4167.2085    
      1530   1.0052712      0.12935497     0.4824976      2.1192239      0.89515484     4163.0073    
      1540   1.002156       0.13077303     0.48954371     2.1230169      0.89566957     4158.9701    
      1550   0.9973195      0.13318226     0.49780132     2.1264316      0.8790367      4154.772     
      1560   0.99373405     0.13627234     0.50418271     2.1305268      0.87035679     4150.2691    
      1570   0.99292865     0.13946796     0.50701315     2.1353452      0.86411514     4145.277     
      1580   0.99507581     0.14242665     0.50664467     2.141155       0.86591977     4140.1877    
      1590   0.99917999     0.14469332     0.50477121     2.1477023      0.86325687     4135.0671    
      1600   1.0036983      0.14612556     0.50321099     2.1543493      0.85564347     4130.0023    
      1610   1.0073432      0.14720241     0.50275176     2.1604324      0.85833775     4124.7879    
      1620   1.0099034      0.14821549     0.50295823     2.1654909      0.85259798     4119.6616    
      1630   1.0119321      0.14935078     0.50264056     2.1693505      0.86123507     4114.6028    
      1640   1.0142093      0.15044987     0.50075632     2.1719799      0.85250914     4109.6297    
      1650   1.016731       0.15138822     0.4969658      2.1729089      0.85579603     4104.6048    
      1660   1.0187835      0.15217716     0.49208884     2.1718986      0.87429263     4099.8203    
      1670   1.0186883      0.15271036     0.48794467     2.1681448      0.8817772      4095.4358    
      1680   1.0158483      0.15283151     0.48641409     2.1624769      0.89889195     4091.4208    
      1690   1.0095216      0.15238261     0.48829404     2.1544213      0.89207395     4087.6542    
      1700   1.0011859      0.15142536     0.49270275     2.1453736      0.90031907     4083.976     
      1710   0.99312179     0.14992502     0.49745971     2.1365384      0.90842883     4080.3973    
      1720   0.98695273     0.14839622     0.50011819     2.1284178      0.90244099     4076.9837    
      1730   0.98388401     0.14723564     0.49908213     2.1216197      0.90723393     4073.6831    
      1740   0.98426694     0.14650733     0.49446173     2.1168452      0.9126664      4070.615     
      1750   0.98670975     0.14595909     0.48812105     2.1136192      0.92394058     4067.8184    
      1760   0.98950083     0.14549653     0.48281948     2.1120402      0.93069398     4065.3003    
      1770   0.99075303     0.14515715     0.48079132     2.1115503      0.92878531     4062.8595    
      1780   0.99019893     0.14508847     0.48250326     2.1123627      0.91099227     4060.2094    
      1790   0.98880921     0.14502363     0.48661199     2.1143227      0.92024225     4057.16      
      1800   0.98829488     0.14492783     0.49102398     2.1178677      0.89728735     4053.9426    
      1810   0.98917668     0.14524269     0.49407268     2.1225535      0.88183333     4050.4749    
      1820   0.99207194     0.14584958     0.49521893     2.128648       0.88105653     4046.8045    
      1830   0.996548       0.14658497     0.49484529     2.1357214      0.90081116     4043.2926    
      1840   1.0020382      0.14723735     0.49357628     2.1433371      0.91428983     4040.211     
      1850   1.007559       0.14786657     0.49178872     2.150457       0.93700154     4037.4709    
      1860   1.0125445      0.14850889     0.48975939     2.1565457      0.94560623     4035.5665    
      1870   1.0164376      0.14908479     0.48771255     2.1609124      0.98032489     4034.1417    
      1880   1.0185497      0.14952035     0.48604615     2.1628484      0.99064144     4033.5109    
      1890   1.0186466      0.15002976     0.48496839     2.1624255      1.0131353      4033.5438    
      1900   1.0163813      0.15085195     0.48456775     2.1594503      1.021555       4034.0555    
      1910   1.012146       0.1518282      0.484869       2.154377       1.0385637      4035.0892    
      1920   1.0064307      0.15292336     0.48595605     2.1479893      1.0316217      4036.3132    
      1930   0.99970185     0.15389661     0.48787267     2.1407895      1.0332997      4037.4017    
      1940   0.99309471     0.15432468     0.49036903     2.1338068      1.0214272      4038.4693    
      1950   0.98766882     0.15402972     0.49251454     2.1275214      1.017925       4039.337     
      1960   0.98475015     0.1531433      0.49310814     2.1228521      1.0060601      4039.91      
      1970   0.98470316     0.15212079     0.49144146     2.1200925      0.99576848     4039.9504    
      1980   0.9873506      0.15079829     0.48790516     2.1192034      0.99777656     4039.763     
      1990   0.99182751     0.14886445     0.48400622     2.1200836      0.98948456     4039.403     
      2000   0.99609428     0.146551       0.48174918     2.121911       0.97060739     4038.7652    
      2010   0.99852017     0.14439237     0.48260445     2.1242452      0.95752492     4037.862     
      2020   0.9989473      0.14264601     0.48663171     2.1271666      0.95745015     4036.2446    
      2030   0.99784923     0.14157713     0.49235938     2.1301788      0.94382019     4034.3782    
      2040   0.99692203     0.14182306     0.49706182     2.1337369      0.92816464     4032.0515    
      2050   0.99807354     0.14331011     0.49790733     2.1377961      0.92786232     4029.3689    
      2060   1.0026265      0.14518715     0.49339566     2.1419885      0.90607766     4026.4423    
      2070   1.009878       0.14708831     0.48455523     2.1459225      0.91569803     4023.4044    
      2080   1.0167665      0.14902955     0.47496746     2.1486052      0.92953519     4020.5822    
      2090   1.0196868      0.1512378      0.46903296     2.1492578      0.92299488     4017.7959    
      2100   1.0163622      0.15392308     0.46962884     2.1475538      0.91206209     4015.1049    
      2110   1.0073829      0.15695962     0.47647581     2.1439732      0.9255033      4012.3025    
      2120   0.99592593     0.16012052     0.48629203     2.1397709      0.89798521     4009.2268    
      2130   0.98565436     0.16338579     0.49460385     2.1359462      0.90627283     4005.8961    
      2140   0.98034682     0.16600158     0.49801482     2.1340144      0.89608872     4002.4568    
      2150   0.98120302     0.16751263     0.49541503     2.1342095      0.9034654      3999.009     
      2160   0.98729835     0.16792498     0.48825413     2.1366007      0.9186087      3995.9319    
      2170   0.99585382     0.16733065     0.47959613     2.140177       0.92065881     3993.2162    
      2180   1.0039922      0.16609503     0.47273619     2.1442847      0.92767811     3990.8       
      2190   1.0090778      0.16510359     0.46981164     2.1479944      0.93237798     3988.4584    
      2200   1.0101381      0.16466277     0.47114999     2.1504818      0.93480159     3986.1801    
      2210   1.008206       0.16460742     0.47522484     2.1516042      0.93590148     3983.912     
      2220   1.0056439      0.16452343     0.47955025     2.1520039      0.92668993     3981.3638    
      2230   1.0041818      0.16393462     0.48208131     2.1517537      0.91063441     3978.5963    
      2240   1.0045523      0.16268539     0.4819899      2.1509686      0.91351249     3975.5769    
      2250   1.0064509      0.16076604     0.47978166     2.1496879      0.90563224     3972.5491    
      2260   1.0087457      0.15850957     0.47660107     2.1476919      0.92327097     3969.6042    
      2270   1.0102715      0.15628711     0.47357652     2.1447327      0.9223444      3966.897     
      2280   1.0101388      0.1544263      0.47117063     2.140267       0.92069887     3964.474     
      2290   1.0089314      0.15279679     0.46890983     2.1345663      0.93881271     3962.5367    
      2300   1.0077921      0.15091507     0.46570327     2.1277697      0.95934215     3960.9701    
      2310   1.0070685      0.14872008     0.46075958     2.119546       0.98251259     3959.7513    
      2320   1.0068121      0.14607562     0.45441917     2.1101766      0.969454       3958.9448    
      2330   1.005884       0.14334462     0.4483531      2.099988       0.98452681     3958.1587    
      2340   1.0027705      0.1406117      0.44509674     2.0893301      0.98948036     3957.6252    
      2350   0.99622889     0.13829177     0.44655314     2.0786576      0.98386059     3956.9982    
      2360   0.98646997     0.13682478     0.45270099     2.0687053      0.9691482      3956.094     
      2370   0.97549518     0.13661219     0.46127729     2.0606126      0.94901655     3954.5768    
      2380   0.96631771     0.13775279     0.4687968      2.0555114      0.94593901     3952.8974    
      2390   0.96175582     0.14018464     0.47205611     2.0543622      0.9485296      3951.0641    
      2400   0.96296467     0.14377826     0.46975516     2.0574675      0.95100944     3949.582     
      2410   0.96933799     0.14795904     0.46310507     2.0645548      0.98249185     3948.5956    
      2420   0.97853149     0.15225877     0.45552107     2.0750558      1.0073503      3948.1911    
      2430   0.98745835     0.15608991     0.45104103     2.0877925      1.0097353      3948.4659    
      2440   0.99389714     0.15918602     0.45239536     2.1018977      1.0171602      3949.0401    
      2450   0.99736703     0.16179212     0.45974669     2.1170581      1.0180985      3949.961     
      2460   0.99935133     0.16386561     0.47038014     2.1327404      1.0297281      3950.8698    
      2470   1.0023849      0.16533196     0.47992409     2.1482995      1.0076717      3951.6068    
      2480   1.0091121      0.16583617     0.48459767     2.1635645      1.0204266      3952.3561    
      2490   1.0199205      0.16551307     0.48300629     2.1778569      1.0214918      3952.995     
      2500   1.0324715      0.16471326     0.47669534     2.1895658      1.005593       3953.6765    
      2510   1.0434754      0.16355229     0.46917107     2.1973806      1.0137252      3954.181     
      2520   1.0497526      0.16215723     0.46408406     2.2003111      1.0051285      3954.4723    
      2530   1.0493963      0.16016383     0.46342907     2.1971283      0.9908175      3954.3315    
      2540   1.0425925      0.15771232     0.46682277     2.1878684      0.97802007     3953.6518    
      2550   1.0310759      0.15566072     0.4719711      2.1736964      0.95084176     3952.2249    
      2560   1.0176292      0.15440793     0.47600816     2.1563179      0.9388323      3950.5047    
      2570   1.0041173      0.15471265     0.47662348     2.1369772      0.95754098     3948.5527    
      2580   0.99241361     0.15642713     0.47305908     2.117578       0.9449092      3946.5719    
      2590   0.98283645     0.15925153     0.4663489      2.0993316      0.94003073     3944.6337    
      2600   0.97500528     0.16256819     0.45862082     2.0831776      0.95048666     3942.9123    
      2610   0.96860518     0.16573308     0.45174725     2.0698721      0.9731931      3941.4352    
      2620   0.96383776     0.16838699     0.44651767     2.0601479      0.97571057     3940.5162    
      2630   0.96137075     0.17032479     0.4425729      2.0544417      0.99785219     3940.114     
      2640   0.96192484     0.17129633     0.43925761     2.0529288      1.0087238      3940.2959    
      2650   0.96565579     0.171119       0.43646355     2.0555519      1.036328       3940.8003    
      2660   0.97190644     0.16985283     0.43481025     2.062005       1.0449466      3941.876     
      2670   0.9794251      0.16799972     0.43508596     2.0717016      1.0512538      3943.3335    
      2680   0.98762997     0.16549839     0.43745136     2.0838686      1.0399096      3945.065     
      2690   0.99609344     0.16286951     0.44103549     2.0975146      1.0519117      3946.7707    
      2700   1.0054792      0.15996054     0.44438673     2.1120305      1.0569977      3948.5356    
      2710   1.0153989      0.15705223     0.44636576     2.1259754      1.0459329      3950.1924    
      2720   1.0246102      0.15470146     0.44706432     2.1381353      1.0520223      3951.8347    
      2730   1.0309339      0.15340831     0.44789729     2.1471574      1.0492879      3953.3896    
      2740   1.032584       0.15332693     0.45087891     2.1525318      1.0423457      3955.0002    
      2750   1.0285418      0.15475714     0.45729569     2.1543177      1.035028       3956.4178    
      2760   1.0194665      0.15728815     0.46647167     2.1524166      1.0310023      3957.3631    
      2770   1.0087698      0.16021886     0.47549951     2.1483358      1.0064648      3957.8817    
      2780   1.0003659      0.16315292     0.4802843      2.1434532      0.99955921     3957.8787    
      2790   0.99731642     0.16536425     0.47762144     2.1384291      1.0099688      3957.8783    
      2800   1.0003119      0.16652772     0.46702871     2.1334914      1.0077243      3958.1198    
      2810   1.0070324      0.16695937     0.45144418     2.1284157      1.0269799      3959.0436    
      2820   1.013212       0.1670636      0.4358245      2.1221664      1.0552327      3960.4223    
      2830   1.0157112      0.16650499     0.42501416     2.114545       1.0570161      3962.1877    
      2840   1.012101       0.16520131     0.42159981     2.1044135      1.0438837      3964.0415    
      2850   1.0036         0.16337157     0.42497282     2.0932099      1.0508107      3965.7342    
      2860   0.99291318     0.16133014     0.43196068     2.0821317      1.0290712      3967.1753    
      2870   0.98306195     0.15960422     0.43843334     2.0721068      1.0157044      3967.9648    
      2880   0.97730922     0.15791024     0.44129932     2.0646528      1.0033389      3968.069     
      2890   0.97613838     0.15626759     0.43976955     2.0597248      0.99832302     3967.9784    
      2900   0.97894512     0.15450856     0.43511725     2.057522       0.98623452     3967.7567    
      2910   0.98382408     0.15288534     0.42983559     2.057933       0.99014591     3967.5521    
      2920   0.9883168      0.15176914     0.42629093     2.0600088      0.99501433     3967.5219    
      2930   0.99161845     0.15079015     0.42563806     2.0633277      0.99693875     3967.5554    
      2940   0.99369621     0.15000839     0.42764076     2.0676641      0.99597538     3967.5544    
      2950   0.99529637     0.14957754     0.43108883     2.0730808      0.9952102      3967.2365    
      2960   0.99686672     0.14943048     0.43458821     2.0787878      0.98268986     3966.6688    
      2970   0.99946324     0.14915051     0.43729931     2.0851123      0.97071999     3965.8974    
      2980   1.0028389      0.1487975      0.43914866     2.0916703      0.97206805     3965.0152    
      2990   1.0064341      0.14825334     0.44042597     2.0977943      0.9693712      3963.9379    
      3000   1.0098539      0.14738444     0.44144366     2.103071       0.9789429      3963.0436    
      3010   1.0127794      0.14640712     0.4422485      2.1072853      0.96238275     3962.2916    
      3020   1.0151155      0.14513256     0.44285197     2.1101171      0.98145446     3961.3223    
      3030   1.0165257      0.14341534     0.44347276     2.1111352      0.97004133     3960.4737    
      3040   1.0167417      0.14140241     0.44418386     2.1101573      0.97512493     3959.5684    
      3050   1.0158548      0.1393131      0.44451858     2.1070728      0.9762916      3958.6762    
      3060   1.0143943      0.13768651     0.44336601     2.1021036      0.97474473     3957.7986    
      3070   1.0128267      0.13699936     0.43963327     2.0953331      0.96606827     3956.8472    
      3080   1.011053       0.13766041     0.43322261     2.0869239      0.96905956     3955.7429    
      3090   1.0085652      0.13940465     0.42554983     2.0772651      0.97734484     3954.7363    
      3100   1.0041629      0.14193885     0.41902341     2.0666717      0.98340334     3953.9556    
      3110   0.99678471     0.14528853     0.41576919     2.0557038      0.98513795     3953.5714    
      3120   0.98651361     0.14955869     0.41641617     2.0452198      0.99108378     3953.275     
      3130   0.97492945     0.1546107      0.41997171     2.0364573      0.98871447     3952.9797    
      3140   0.96445903     0.1596731      0.42461118     2.0304591      0.98628121     3952.8256    
      3150   0.95780815     0.16388385     0.42868909     2.028775       0.98903156     3952.5647    
      3160   0.95617661     0.16670914     0.43123664     2.0317014      0.99504615     3952.2276    
      3170   0.96032796     0.16778204     0.43199717     2.0397596      1.0030189      3952.0758    
      3180   0.96917438     0.16733665     0.43149045     2.0520724      1.0157858      3952.4502    
      3190   0.98076204     0.16640273     0.43083721     2.0678606      1.0235946      3953.1824    
      3200   0.9926939      0.16578224     0.43153586     2.0858302      1.0366537      3954.2702    
      3210   1.0034305      0.1656001      0.43477978     2.1049911      1.0401792      3955.6662    
      3220   1.0116629      0.16587279     0.44080231     2.1236305      1.0337092      3957.0377    
      3230   1.0178375      0.16629895     0.44871211     2.1412252      1.0375128      3958.3832    
      3240   1.0224105      0.16658762     0.45684984     2.1565086      1.0393117      3959.8599    
      3250   1.0265006      0.16655714     0.46348502     2.1692462      1.0392169      3961.1307    
      3260   1.0303313      0.16615843     0.46759904     2.1787057      1.0259751      3962.3417    
      3270   1.0338684      0.16527284     0.46901478     2.1845395      1.0373488      3963.4421    
      3280   1.0365095      0.16405371     0.46821011     2.1864759      1.0519417      3964.5806    
      3290   1.0368961      0.16284513     0.46573461     2.1833716      1.0270091      3965.7311    
      3300   1.0352263      0.16182457     0.46192735     2.1760399      1.037699       3966.8601    
      3310   1.0310632      0.16120358     0.45703833     2.1642874      1.0378326      3968.1028    
      3320   1.0242707      0.16121313     0.45151041     2.148584       1.0233196      3969.3004    
      3330   1.015377       0.16141369     0.44621937     2.1301577      1.0194403      3970.1173    
      3340   1.0051549      0.16141297     0.44209442     2.1107043      1.0044897      3970.3798    
      3350   0.99390677     0.16100006     0.4397171      2.0910479      0.99425002     3970.3739    
      3360   0.98270422     0.16011448     0.43891896     2.0725663      0.97597073     3969.697     
      3370   0.97274833     0.15853585     0.43914875     2.0562889      0.95815738     3968.6783    
      3380   0.96528814     0.15651649     0.43974423     2.0436787      0.94703509     3966.9798    
      3390   0.96068657     0.15407649     0.44046192     2.0350565      0.92263735     3964.8412    
      3400   0.95915027     0.15157794     0.44135199     2.0311444      0.91577591     3962.1818    
      3410   0.96059087     0.14917895     0.44263725     2.0321908      0.90988288     3959.3417    
      3420   0.96436796     0.14726196     0.44442791     2.0377281      0.91335537     3956.5027    
      3430   0.970031       0.14618161     0.44651696     2.0472284      0.92048124     3953.671     
      3440   0.97768484     0.14564488     0.44842675     2.0600781      0.94280455     3951.2342    
      3450   0.98771747     0.14542826     0.44930971     2.075788       0.95088215     3949.349     
      3460   0.9994886      0.14566625     0.44838286     2.0927496      0.97457645     3948.0464    
      3470   1.0119691      0.14659583     0.44562469     2.1096351      0.98787414     3947.3644    
      3480   1.0236365      0.1480094      0.44219872     2.1251177      0.99010603     3947.1894    
      3490   1.0320273      0.14994766     0.44010985     2.1375488      1.0223876      3947.5311    
      3500   1.0356623      0.15219277     0.44103538     2.1461699      1.0272143      3948.1974    
      3510   1.0340997      0.15461799     0.44534157     2.1505583      1.0217814      3948.9699    
      3520   1.0282495      0.15685403     0.45178634     2.1504669      1.0184923      3949.7504    
      3530   1.0202548      0.1590349      0.45803359     2.1469073      1.0299447      3950.5088    
      3540   1.0122014      0.161614       0.46157704     2.140954       1.0115686      3951.1066    
      3550   1.0053001      0.16502768     0.46098903     2.1334314      1.0105597      3951.5974    
      3560   1.0005733      0.16885668     0.45652507     2.1257087      1.0123578      3952.1466    
      3570   0.99737405     0.17211582     0.44995533     2.117601       1.0242028      3952.9175    
      3580   0.99504497     0.17425019     0.44367167     2.1099593      1.032226       3953.6979    
      3590   0.9924154      0.17482959     0.43976724     2.1026913      1.028276       3954.7193    
      3600   0.98906708     0.17398209     0.43912035     2.0961762      1.0332256      3955.6255    
      3610   0.98569462     0.17192622     0.4412015      2.0911446      1.0336734      3956.3857    
      3620   0.98354079     0.16895277     0.44440299     2.088143       1.0222759      3956.9511    
      3630   0.98392402     0.16476812     0.44693297     2.087063       1.0165838      3957.5177    
      3640   0.98718223     0.15957391     0.4477681      2.0875895      1.0076549      3958.0798    
      3650   0.99283217     0.15426187     0.44691925     2.0899005      1.0184425      3958.7468    
      3660   0.99881201     0.14999427     0.44492817     2.0926084      1.0216102      3959.7268    
      3670   1.004174       0.14745135     0.44231114     2.0954887      1.0263066      3960.8232    
      3680   1.0084765      0.14644913     0.43937124     2.0979979      1.0410263      3962.0818    
      3690   1.0110225      0.14660684     0.43672404     2.0993261      1.0458444      3963.4126    
      3700   1.0110238      0.14782404     0.43568781     2.0995089      1.0320818      3964.8397    
      3710   1.0074505      0.14991131     0.43787121     2.0984217      1.0261532      3965.9356    
      3720   1.0002468      0.15252618     0.44424522     2.0966088      1.0212064      3966.8077    
      3730   0.99034206     0.15555007     0.45421705     2.0947527      1.0068013      3967.2184    
      3740   0.9804066      0.1587036      0.4655757      2.094367       0.99510907     3967.1794    
      3750   0.97350348     0.16141881     0.47534386     2.0964993      0.98074577     3966.6696    
      3760   0.97200642     0.16325109     0.48107599     2.101819       0.97058557     3965.7746    
      3770   0.9767857      0.16410664     0.48178435     2.1105492      0.96413027     3964.726     
      3780   0.98628379     0.16437774     0.47810149     2.1213795      0.97619123     3963.8616    
      3790   0.99927413     0.16416151     0.47180115     2.1343416      0.98714801     3963.4023    
      3800   1.0127396      0.16371102     0.46508546     2.1473665      0.99173197     3963.0855    
      3810   1.0240234      0.16304812     0.46020413     2.1587419      1.0082179      3963.2049    
      3820   1.0312274      0.16220963     0.45876163     2.1672631      1.0139736      3963.744     
      3830   1.033239       0.16125687     0.46121312     2.1717781      1.0101879      3964.3336    
      3840   1.0303486      0.16070517     0.46657255     2.1722518      1.0106366      3964.8995    
      3850   1.0245177      0.16031067     0.47254655     2.1690881      1.0018112      3965.4181    
      3860   1.0182186      0.15991732     0.47643018     2.163133       1.0055036      3965.6816    
      3870   1.0128568      0.16019979     0.47629045     2.1552359      1.0095492      3965.889     
      3880   1.0085428      0.16124628     0.47186641     2.1453897      1.004026       3966.1626    
      3890   1.0051993      0.1627448      0.46463828     2.1346465      1.016467       3966.5275    
      3900   1.001599       0.1639906      0.45718317     2.1230387      1.0315168      3967.1932    
      3910   0.99702566     0.16480292     0.45178954     2.1115999      1.0280445      3968.2683    
      3920   0.99096204     0.16524255     0.44937388     2.1005316      1.0388481      3969.5306    
      3930   0.98391598     0.16571112     0.4492874      2.0903484      1.0491147      3970.9504    
      3940   0.97736543     0.16651104     0.44988102     2.0819196      1.0475287      3972.6356    
      3950   0.9729896      0.16770478     0.44954736     2.0762183      1.0431497      3974.3306    
      3960   0.9718231      0.16866728     0.44773576     2.07362        1.0527192      3976.0343    
      3970   0.97393511     0.16898851     0.44514191     2.0745143      1.049966       3977.4533    
      3980   0.9781387      0.16831101     0.44323931     2.0782373      1.0549582      3979.1031    
      3990   0.98355948     0.16680338     0.44305944     2.0846781      1.0498422      3980.6294    
      4000   0.9896487      0.16488448     0.44449236     2.0933227      1.0338882      3981.9832    
      4010   0.99649853     0.16280965     0.44634151     2.1033681      1.0207083      3983.0963    
      4020   1.0043757      0.16075719     0.44703306     2.1138188      1.0181438      3983.7576    
      4030   1.0132604      0.15882141     0.44571679     2.123889       1.0202724      3984.3838    
      4040   1.0217242      0.15715123     0.44290519     2.1320985      1.0114453      3984.9407    
      4050   1.028261       0.15584489     0.44037011     2.1380587      1.0144162      3985.3049    
      4060   1.0305299      0.15515145     0.44027495     2.1406723      1.0004004      3985.5987    
      4070   1.0274465      0.15541898     0.44380472     2.1398462      0.98500494     3985.5554    
      4080   1.0192983      0.1566824      0.45041692     2.1355038      0.97328002     3984.9186    
      4090   1.0090387      0.15845535     0.45804428     2.1295202      0.9479847      3983.8138    
      4100   0.99915768     0.1603534      0.46403497     2.1225927      0.95692274     3982.123     
      4110   0.9917083      0.16215345     0.46644154     2.1156292      0.93988199     3980.195     
      4120   0.98806096     0.16373128     0.46478562     2.110082       0.94609262     3978.1255    
      4130   0.98758858     0.16471755     0.46012759     2.105702       0.9512194      3976.2418    
      4140   0.98950207     0.16476614     0.45426167     2.1027538      0.95983313     3974.7491    
      4150   0.99262818     0.16381293     0.4486299      2.1008564      0.96139683     3973.5111    
      4160   0.99642931     0.16198597     0.44366886     2.099768       0.97946832     3972.4937    
      4170   1.0002102      0.1599133      0.43891156     2.0986074      1.0030366      3971.9451    
      4180   1.0040213      0.15821432     0.43366208     2.0973736      1.0103722      3972.04      
      4190   1.0078338      0.15673874     0.42767577     2.0956283      1.0279097      3972.7421    
      4200   1.0108013      0.1553745      0.4214629      2.0925009      1.0485783      3974.0437    
      4210   1.0120907      0.15421869     0.41620893     2.0880245      1.0567994      3975.6685    
      4220   1.0108086      0.15307397     0.41329008     2.0820385      1.0555496      3977.5813    
      4230   1.0065304      0.15180463     0.41353282     2.0745969      1.0594583      3979.4925    
      4240   1.0000978      0.15073055     0.41648841     2.066833       1.0367198      3981.1105    
      4250   0.99251932     0.15038742     0.42043096     2.0590687      1.0290282      3982.3047    
      4260   0.98573451     0.15097505     0.42324053     2.0522923      1.0195285      3983.0227    
      4270   0.98176276     0.15166713     0.42372127     2.0475096      1.0050065      3983.5886    
      4280   0.98050387     0.15223039     0.42228957     2.0447535      0.99118604     3983.7926    
      4290   0.98090511     0.15270752     0.42090286     2.0444456      0.9910011      3983.6956    
      4300   0.98154321     0.15269338     0.4220185      2.0465039      0.99213636     3983.5497    
      4310   0.98117524     0.15208227     0.42734074     2.0506632      0.99469499     3983.1415    
      4320   0.97982828     0.15104969     0.43676324     2.0570334      0.97111184     3982.2673    
      4330   0.97903915     0.15001329     0.44808253     2.066133       0.94596407     3981.101     
      4340   0.98053327     0.14964634     0.45779118     2.0777151      0.95032565     3979.5455    
      4350   0.98593859     0.15022388     0.46284648     2.0914531      0.95158755     3977.7921    
      4360   0.99591498     0.15177745     0.46212729     2.1072467      0.94589352     3976.1462    
      4370   1.0086935      0.15405448     0.45681656     2.1233741      0.95465293     3974.5863    
      4380   1.0218729      0.15663856     0.4496814      2.1385849      0.9679256      3973.1994    
      4390   1.0329496      0.15890862     0.44371127     2.151494       0.98105602     3972.0124    
      4400   1.0395803      0.16061222     0.44093397     2.1603629      0.97594868     3971.2773    
      4410   1.0407061      0.16192754     0.4416059      2.1640383      0.98313689     3970.6445    
      4420   1.0373787      0.16286125     0.44444574     2.1628225      0.98746554     3969.9253    
      4430   1.0310882      0.16349438     0.44751921     2.1570966      0.9785009      3969.129     
      4440   1.0232741      0.16403663     0.44918643     2.1475892      0.97574459     3968.1714    
      4450   1.015093       0.1645192      0.44869093     2.1353089      0.96199089     3967.0657    
      4460   1.0072549      0.16479181     0.44612561     2.1212632      0.96364121     3965.8219    
      4470   1.0001648      0.16496839     0.4420538      2.1067366      0.96813433     3964.6018    
      4480   0.99364272     0.16508684     0.43709882     2.0921204      0.97402951     3963.6233    
      4490   0.98862414     0.16460281     0.4316766      2.078689       0.98190658     3962.9131    
      4500   0.98502298     0.16332128     0.42595695     2.066288       0.98752104     3962.3623    
      4510   0.98302285     0.16126327     0.42021464     2.0554886      0.99884108     3962.0864    
      4520   0.98237396     0.15859609     0.41500669     2.0466404      1.0101224      3961.9459    
      4530   0.9824604      0.15550971     0.41124256     2.0399196      0.99907512     3961.9736    
      4540   0.98227956     0.15226021     0.40971506     2.0348714      0.99538739     3962.0433    
      4550   0.98188059     0.14904639     0.41053452     2.0318788      1.0113873      3962.129     
      4560   0.98169491     0.14637078     0.41291876     2.031309       0.99543438     3962.3158    
      4570   0.98207725     0.14469657     0.4155463      2.0328356      0.9929478      3962.347     
      4580   0.98411672     0.14401432     0.4173226      2.0369878      0.99347818     3962.2803    
      4590   0.98790735     0.1436947      0.41789836     2.0429279      0.97857728     3962.0568    
      4600   0.99260262     0.14353914     0.41790733     2.0498217      0.97015417     3961.6082    
      4610   0.99729674     0.14377358     0.41859624     2.0577837      0.97302814     3960.8409    
      4620   1.0011287      0.14417803     0.42108929     2.066427       0.96940707     3959.8053    
      4630   1.0030256      0.14519086     0.42566661     2.0748615      0.97228097     3958.6785    
      4640   1.0031875      0.14722635     0.43147274     2.082946       0.95672546     3957.522     
      4650   1.0032201      0.14974487     0.43682906     2.0908696      0.95868331     3956.4465    
      4660   1.0042664      0.15234139     0.43999313     2.0981991      0.97010797     3955.1715    
      4670   1.0072214      0.15487376     0.44000459     2.105174       0.97858828     3954.11      
      4680   1.0114674      0.15720809     0.43725313     2.1111236      0.99182728     3953.4553    
      4690   1.0155166      0.15912647     0.43340663     2.1152671      1.0041493      3953.3181    
      4700   1.017994       0.1604886      0.43070105     2.1176384      1.0197885      3953.5565    
      4710   1.0177384      0.16087512     0.43082229     2.1177629      1.0127418      3954.2022    
      4720   1.0146729      0.1601746      0.43391402     2.1155575      1.0143232      3954.7636    
      4730   1.0102368      0.15823246     0.43862947     2.1116791      1.019096       3955.3444    
      4740   1.0057247      0.15585082     0.44282262     2.1067248      1.0042605      3955.7248    
      4750   1.0021911      0.15377464     0.44459994     2.1011274      1.0256442      3956.13      
      4760   1.0001415      0.15259769     0.44297812     2.0952553      1.0326197      3956.8358    
      4770   0.99943355     0.15252049     0.43825147     2.0893899      1.0310549      3957.7476    
      4780   0.99925779     0.15360151     0.43178086     2.0837368      1.0411621      3958.8825    
      4790   0.99792067     0.15556091     0.42566409     2.0775744      1.045509       3960.3207    
      4800   0.99494061     0.15787229     0.42200307     2.0717563      1.0506991      3961.8371    
      4810   0.98973593     0.16006835     0.42218472     2.0663298      1.0402536      3963.2747    
      4820   0.98317363     0.16180257     0.4262045      2.0622438      1.0217688      3964.4651    
      4830   0.9773442      0.16285333     0.43253907     2.0608881      1.018384       3965.4441    
      4840   0.97343802     0.16331812     0.43880077     2.0617574      1.0239957      3966.0626    
      4850   0.97333418     0.16323856     0.44301824     2.0657396      1.0259779      3966.7975    
      4860   0.97746942     0.16272238     0.44435028     2.0727561      1.0314125      3967.8269    
      4870   0.98508725     0.16210256     0.44317843     2.0823871      1.0414644      3969.0926    
      4880   0.99457588     0.16142141     0.44079896     2.0935544      1.06221        3970.737     
      4890   1.0042481      0.16046177     0.43883611     2.1051351      1.06084        3972.8479    
      4900   1.0124693      0.15957857     0.43858356     2.1163267      1.0727748      3975.1975    
      4910   1.0182269      0.15916612     0.44049937     2.1264635      1.0773316      3977.6639    
      4920   1.0210831      0.15904712     0.44394837     2.1340762      1.0817627      3980.1623    
      4930   1.0221224      0.15900176     0.44745488     2.1390958      1.0794754      3982.8084    
      4940   1.0223209      0.15921591     0.44933974     2.1414925      1.0785564      3985.3923    
      4950   1.0224805      0.15937736     0.44852918     2.1410826      1.0857169      3987.9355    
      4960   1.0226342      0.15924087     0.44513423     2.1377816      1.0850399      3990.4958    
      4970   1.0219799      0.15903644     0.44053627     2.1319981      1.08874        3993.0672    
      4980   1.0186392      0.15937021     0.43673397     2.1235204      1.0754944      3995.5917    
      4990   1.011944       0.16034203     0.43527293     2.1129919      1.0478886      3997.7562    
      5000   1.0022833      0.16203167     0.43645567     2.1013785      1.0480092      3999.3805    
      5010   0.99151514     0.16386898     0.43932545     2.089939       1.0318977      4000.6647    
      5020   0.98203378     0.16507094     0.4422807      2.0798792      0.99593897     4001.2162    
      5030   0.97531334     0.16545554     0.44414642     2.0720524      0.99114147     4001.0899    
      5040   0.97206067     0.16492736     0.44460359     2.0671042      0.97764928     4000.4136    
      5050   0.97216622     0.1637196      0.44404906     2.0655001      0.97402627     3999.3159    
      5060   0.97489732     0.16220381     0.44315733     2.0671878      0.96857239     3998.2645    
      5070   0.9797494      0.16063085     0.44219346     2.0719265      0.9802847      3997.1337    
      5080   0.98646626     0.15894258     0.44097774     2.0790942      0.97083307     3996.0464    
      5090   0.99433244     0.15752592     0.43922167     2.0877166      0.97731139     3995.1735    
      5100   1.0023382      0.15717095     0.43690725     2.0970516      0.99233084     3994.7255    
      5110   1.0090992      0.1587789      0.43417766     2.1060678      0.99853914     3994.6558    
      5120   1.0142058      0.16159597     0.43131131     2.1136758      1.025956       3995.1129    
      5130   1.0178275      0.16494263     0.42858484     2.1197265      1.0393376      3996.1239    
      5140   1.0193716      0.16833612     0.42621377     2.1230644      1.0572837      3997.5243    
      5150   1.0194417      0.1707369      0.42448654     2.1238429      1.0529048      3999.2472    
      5160   1.0183977      0.17151659     0.42379636     2.1223671      1.067431       4001.0603    
      5170   1.0160799      0.17103412     0.42437764     2.1189904      1.0560021      4002.7967    
      5180   1.0125292      0.16951741     0.42592592     2.1136978      1.0457286      4004.4292    
      5190   1.0084585      0.16717693     0.42764074     2.1069683      1.029688       4005.756     
      5200   1.0045274      0.16447544     0.42860428     2.0993358      1.0182184      4006.6946    
      5210   1.0010801      0.16194098     0.42826456     2.0912924      1.0053957      4007.1065    
      5220   0.99824691     0.15977121     0.42670751     2.0833173      0.99064075     4007.2539    
      5230   0.99585358     0.15756077     0.42463087     2.0754416      0.99274525     4007.0325    
      5240   0.99370772     0.15502676     0.42302428     2.0680833      0.98306075     4006.497     
      5250   0.99175834     0.15239991     0.42261659     2.0621257      0.97113355     4005.7676    
      5260   0.98987346     0.14952414     0.42336818     2.0571752      0.9594169      4004.5432    
      5270   0.98853267     0.14663516     0.42469288     2.0536005      0.95001813     4003.1355    
      5280   0.98813766     0.14398966     0.42569085     2.0513606      0.9453455      4001.4943    
      5290   0.98899725     0.14179201     0.42577931     2.0505404      0.94367449     3999.766     
      5300   0.99051982     0.14051346     0.42497101     2.0507366      0.95730662     3997.9855    
      5310   0.99253332     0.14009908     0.42394455     2.0523149      0.93478734     3996.3102    
      5320   0.99404607     0.1405942      0.42367233     2.0548061      0.95500854     3994.4544    
      5330   0.99408408     0.14235271     0.42493962     2.0578889      0.96511521     3992.7632    
      5340   0.99288372     0.14517958     0.42777126     2.0617475      0.96325325     3991.2682    
      5350   0.99142117     0.14850129     0.43130831     2.0664132      0.95430431     3989.8196    
      5360   0.99067579     0.15219125     0.43417115     2.0718484      0.97132707     3988.6085    
      5370   0.99206961     0.15610279     0.43496545     2.0786442      0.96721541     3987.4783    
      5380   0.99557001     0.15985979     0.43315822     2.0858427      0.98462795     3986.5336    
      5390   1.0014785      0.162809       0.4293919      2.0938852      0.99008842     3986.0231    
      5400   1.0076448      0.16503705     0.42522175     2.1011893      1.0094501      3986.0065    
      5410   1.0126088      0.16688783     0.4223612      2.1076229      1.0228423      3986.4297    
      5420   1.0152322      0.1684457      0.42185376     2.112607       1.0253415      3987.2433    
      5430   1.0155498      0.16947351     0.42357777     2.115835       1.0218337      3987.8959    
      5440   1.0145688      0.16951172     0.42643952     2.117264       1.0204694      3988.4571    
      5450   1.0134994      0.16844669     0.42873421     2.1168902      1.0056529      3988.8862    
      5460   1.0132449      0.16666134     0.4291446      2.1151336      0.99942877     3989.06      
      5470   1.0131494      0.16461306     0.42758017     2.1113776      1.0100829      3989.1979    
      5480   1.0120315      0.16300055     0.42526769     2.1057764      1.0080296      3989.5518    
      5490   1.0091743      0.16194399     0.42398839     2.0991563      1.0003067      3989.8328    
      5500   1.004156       0.16098107     0.4249833      2.0916634      1.0023894      3989.7838    
      5510   0.99773222     0.15968326     0.42801325     2.0837634      0.98471794     3989.4158    
      5520   0.9917541      0.15801977     0.43128138     2.076404       0.982079       3988.6373    
      5530   0.98814933     0.15600432     0.43247202     2.070174       0.97046778     3987.943     
      5540   0.98764206     0.15398396     0.43004344     2.0649644      0.97109693     3987.3156    
      5550   0.98994233     0.15258813     0.4243154      2.0612897      1.0049792      3986.8818    
      5560   0.9929072      0.15225225     0.41746371     2.0585479      1.0100919      3986.8648    
      5570   0.99454248     0.15299786     0.41246255     2.0567444      1.0067964      3986.9843    
      5580   0.99331334     0.15421979     0.41174255     2.0554032      1.0093383      3987.2286    
      5590   0.9893733      0.15554729     0.4159739      2.0550541      0.99940419     3987.349     
      5600   0.98401817     0.15669983     0.42381875     2.0560217      0.99860799     3987.3405    
      5610   0.97985255     0.15737081     0.43238108     2.0590088      0.99629216     3987.2284    
      5620   0.97909198     0.15752899     0.43837747     2.0640229      1.0017188      3986.9904    
      5630   0.98387546     0.15693589     0.43953097     2.071756       0.98643363     3986.9978    
      5640   0.99390119     0.15535073     0.43545781     2.0811309      1.0032693      3987.0372    
      5650   1.0069696      0.15325558     0.42810519     2.0912788      1.023314       3987.7031    
      5660   1.0188375      0.15188342     0.42079585     2.1003929      1.0369352      3988.8749    
      5670   1.0260476      0.15168247     0.41681008     2.1070173      1.0632606      3990.4622    
      5680   1.026925       0.15293541     0.41778427     2.1105602      1.0549992      3992.3801    
      5690   1.0219686      0.15566883     0.42277698     2.1108544      1.0490555      3994.2336    
      5700   1.0140487      0.15914283     0.42883152     2.1085072      1.0578114      3996.0373    
      5710   1.0064181      0.16262333     0.43266094     2.1043754      1.0504493      3997.8565    
      5720   1.001125       0.16569356     0.43254392     2.0993917      1.0458877      3999.5997    
      5730   0.99861775     0.16784387     0.42916021     2.0943988      1.0442309      4001.1926    
      5740   0.99771111     0.16887206     0.4248762      2.0897835      1.0446886      4002.6279    
      5750   0.99688319     0.16835195     0.42233623     2.085482       1.0460076      4003.9926    
      5760   0.99542257     0.16609433     0.42314669     2.0818446      1.0256269      4005.1607    
      5770   0.99282946     0.16254177     0.42730309     2.0785602      1.0097632      4005.8003    
      5780   0.99068804     0.15795784     0.43340823     2.0768704      0.99255477     4005.8447    
      5790   0.98944323     0.15313349     0.4393558      2.0761271      0.97226624     4005.3151    
      5800   0.98995327     0.14902051     0.44317155     2.0765947      0.974378       4004.4286    
      5810   0.99236628     0.14656686     0.44370456     2.0782922      0.9841389      4003.5076    
      5820   0.99625783     0.14619356     0.44078416     2.0808338      0.96892612     4002.7321    
      5830   1.0008586      0.14766072     0.43538169     2.0837972      0.99082936     4002.2414    
      5840   1.0053728      0.15017946     0.4291391      2.0868422      0.9992503      4002.3066    
      5850   1.0085517      0.15313588     0.42371656     2.0891427      1.0268214      4002.856     
      5860   1.009155       0.15627768     0.42025977     2.0897323      1.0333194      4004.0043    
      5870   1.0077067      0.15901442     0.41922549     2.0892631      1.0414231      4005.4463    
      5880   1.0048803      0.16071377     0.42057814     2.088077       1.0247864      4006.9518    
      5890   1.0010741      0.16112582     0.42399273     2.0861965      1.0318476      4008.0856    
      5900   0.99684806     0.16073218     0.42886932     2.0843426      1.0211884      4008.8729    
      5910   0.99328125     0.15938277     0.43415804     2.0829336      1.0008326      4009.1305    
      5920   0.99160135     0.15704604     0.43846457     2.0823844      1.0005724      4008.9682    
      5930   0.99291949     0.15409421     0.44037175     2.0833163      0.98886281     4008.5019    
      5940   0.9968971      0.15120239     0.43904137     2.0850584      0.97898725     4007.7216    
      5950   1.0026599      0.14891806     0.43466551     2.0870393      0.97963303     4006.8885    
      5960   1.0090083      0.14728869     0.42838999     2.0886537      0.99351014     4006.3139    
      5970   1.0144364      0.14646739     0.42179557     2.0893773      1.0025508      4006.191     
      5980   1.0168861      0.14702045     0.41622333     2.0880313      1.0056096      4006.1936    
      5990   1.0158451      0.14888648     0.41251571     2.0846287      0.99640754     4006.3533    
      6000   1.0114835      0.15164303     0.41087627     2.0792057      1.0146181      4006.614     
      6010   1.0050764      0.15444992     0.41101588     2.072545       1.0140655      4007.0782    
      6020   0.99779298     0.15669067     0.41246419     2.0653128      1.0243182      4007.6376    
      6030   0.99027479     0.15850912     0.41481241     2.0582062      1.024977       4008.3432    
      6040   0.98372492     0.15966442     0.41766917     2.052397       1.0235809      4009.1252    
      6050   0.97899385     0.1596729      0.42057658     2.0482188      1.0333243      4010.1355    
      6060   0.97705857     0.15874431     0.42291985     2.0467316      1.0176217      4011.1285    
      6070   0.97769152     0.15725408     0.42416468     2.0474353      1.0217555      4011.9421    
      6080   0.98165502     0.15517134     0.42412651     2.0512575      1.0102601      4012.7491    
      6090   0.98760063     0.15304675     0.4230482      2.0569698      1.0150437      4013.32      
      6100   0.99458898     0.15126103     0.42160687     2.0642216      1.0187547      4013.8382    
      6110   1.0017385      0.14993725     0.42052207     2.0725334      1.0015211      4014.0633    
      6120   1.0075133      0.14959022     0.42041239     2.0807359      1.0066177      4014.2621    
      6130   1.010955       0.15066857     0.42150014     2.0880627      0.99944937     4014.5222    
      6140   1.0119795      0.1533028      0.42341062     2.0941436      0.99941476     4014.5638    
      6150   1.0110911      0.15706347     0.42535392     2.0985155      1.0081969      4014.7146    
      6160   1.0099645      0.1608318      0.42641391     2.1016545      1.0058199      4014.9154    
      6170   1.0092245      0.1640649      0.42620891     2.103573       1.0126259      4015.2526    
      6180   1.0087633      0.16670546     0.42514067     2.1044537      1.0170325      4015.7774    
      6190   1.0076756      0.16900999     0.42421786     2.1042044      1.0256011      4016.4042    
      6200   1.0049936      0.17142345     0.42443988     2.1028184      1.0321671      4017.291     
      6210   1.0008216      0.17386423     0.42595733     2.1005209      1.0405686      4018.6791    
      6220   0.99693607     0.17581099     0.42765348     2.0983375      1.0555817      4020.1537    
      6230   0.99507576     0.17645334     0.42783447     2.0963714      1.035766       4021.8615    
      6240   0.99612837     0.17573962     0.42527378     2.0946753      1.0427832      4023.3729    
      6250   1.0003296      0.17337365     0.42034849     2.0936837      1.0444459      4024.9575    
      6260   1.0054929      0.1697387      0.41509741     2.0925399      1.0529215      4026.6032    
      6270   1.0090868      0.16559039     0.41236708     2.0910501      1.0482568      4028.2343    
      6280   1.0086584      0.16169693     0.41427897     2.0884262      1.0359357      4029.5556    
      6290   1.0038979      0.1584684      0.42102482     2.0848054      1.0093604      4030.4414    
      6300   0.9961664      0.15679658     0.43042724     2.0809428      0.99424037     4030.6484    
      6310   0.98816225     0.1570877      0.43910459     2.0779093      0.98390341     4030.5188    
      6320   0.98232016     0.15943323     0.44406946     2.0764597      0.96774929     4029.9587    
      6330   0.98012844     0.16303924     0.44421868     2.0769285      0.99211085     4029.358     
      6340   0.98170368     0.16701618     0.44070155     2.0797503      0.9902939      4029.274     
      6350   0.98546794     0.17082998     0.43592588     2.0844328      1.0079051      4029.3007    
      6360   0.99000653     0.17380085     0.43248105     2.0907643      1.0169228      4029.6961    
      6370   0.99417818     0.17568366     0.43192689     2.0983482      1.0163696      4030.2886    
      6380   0.99756686     0.17632925     0.43431671     2.1064649      1.0037984      4030.9624    
      6390   1.0006789      0.17626629     0.43841756     2.1151692      1.0197107      4031.5384    
      6400   1.0044192      0.17528332     0.44226933     2.1236464      1.0156892      4032.1424    
      6410   1.0096639      0.1735784      0.44408513     2.1316215      1.026624       4032.7585    
      6420   1.0161836      0.17149589     0.44323486     2.1384648      1.0201525      4033.4789    
      6430   1.0224369      0.16959461     0.4407328      2.1434382      1.0306321      4034.1999    
      6440   1.0262734      0.16790022     0.43857392     2.1453376      1.0292147      4035.0132    
      6450   1.0265603      0.16675935     0.43830933     2.1443623      1.0240174      4035.8844    
      6460   1.0232119      0.16617919     0.43984797     2.1402999      1.0091512      4036.5875    
      6470   1.0176318      0.16620002     0.44138821     2.1334938      1.0134176      4037.285     
      6480   1.0115084      0.16701617     0.44034833     2.1240882      1.0416411      4038.0468    
      6490   1.0069315      0.1686546      0.43489237     2.1134078      1.0306         4039.1856    
      6500   1.0045196      0.1705577      0.4252188      2.1020208      1.036266       4040.4405    
      6510   1.0025842      0.17224371     0.41401466     2.0896006      1.0556921      4042.1501    
      6520   0.99904496     0.17332571     0.4052824      2.0766434      1.064428       4044.2675    
      6530   0.99291304     0.17310725     0.40238612     2.064334       1.0564907      4046.3705    
      6540   0.98403201     0.17116185     0.40640592     2.0530916      1.0589015      4048.393     
      6550   0.97435744     0.16744305     0.41534204     2.0438022      1.0529496      4050.1525    
      6560   0.9671843      0.16226961     0.42502332     2.0375542      1.0247906      4051.5089    
      6570   0.96521547     0.15677085     0.43123342     2.0353133      1.0221732      4052.4348    
      6580   0.96927456     0.15189653     0.43176993     2.037062       1.0214347      4053.2765    
      6590   0.97781759     0.14879424     0.42751846     2.0425182      1.0117058      4053.9974    
      6600   0.98752217     0.14813636     0.4218754      2.050769       1.0164644      4054.6542    
      6610   0.99490103     0.1496868      0.418926       2.0604344      1.0070379      4055.4905    
      6620   0.99820522     0.15290981     0.4211452      2.0708311      1.0178128      4056.2024    
      6630   0.99840198     0.15619429     0.42792483     2.0811903      1.0144504      4056.7343    
      6640   0.99875694     0.15864377     0.43582786     2.092075       0.99233576     4056.7549    
      6650   1.0028421      0.15934823     0.44065904     2.1037362      0.99442753     4056.3323    
      6660   1.011421       0.15809322     0.44001208     2.1146981      0.99165177     4055.7831    
      6670   1.0234213      0.15530217     0.43462146     2.1245104      0.98195982     4055.2792    
      6680   1.0351396      0.15172996     0.42775675     2.1316447      0.98954641     4054.7935    
      6690   1.0422794      0.14831016     0.42316957     2.1343436      0.99860782     4054.3588    
      6700   1.0422002      0.14610719     0.42299638     2.1318488      0.98202094     4053.9033    
      6710   1.0348354      0.14569119     0.42667304     2.1240661      0.96994455     4053.1965    
      6720   1.0232659      0.1464203      0.43155235     2.1123264      0.96644319     4052.1231    
      6730   1.0108644      0.14757306     0.43457725     2.0979085      0.95690747     4050.8318    
      6740   1.0002943      0.14861753     0.43391299     2.0824391      0.95993303     4049.5631    
      6750   0.99226856     0.14949453     0.42971949     2.0670883      0.97057145     4048.3179    
      6760   0.9861213      0.15024137     0.42388874     2.0527868      0.96144001     4047.1263    
      6770   0.98085785     0.15037001     0.41908532     2.0402196      0.96629088     4046.0517    
      6780   0.97558152     0.1497818      0.41747537     2.0301098      0.97851776     4044.9996    
      6790   0.96996616     0.1488142      0.4195623      2.0228091      0.96535432     4043.8613    
      6800   0.96516882     0.14782421     0.42390307     2.0189664      0.96729756     4042.5363    
      6810   0.96348291     0.1466724      0.42799338     2.0193769      0.94838203     4041.0367    
      6820   0.96625255     0.14553896     0.42954856     2.0239517      0.95038885     4039.2306    
      6830   0.97376493     0.14459958     0.42780223     2.0325305      0.93989189     4037.6177    
      6840   0.98435662     0.14445602     0.42373387     2.0442005      0.95630909     4036.0411    
      6850   0.99546098     0.14527732     0.41969124     2.0576298      0.96304927     4034.7609    
      6860   1.0044302      0.14760433     0.41815365     2.0718683      0.96793477     4033.6261    
      6870   1.0092208      0.15155355     0.42047678     2.0853239      0.97102317     4032.7939    
      6880   1.0104822      0.15636349     0.42615908     2.0977076      0.96725963     4031.896     
      6890   1.0103036      0.16079803     0.43331436     2.1090296      0.98957946     4031.1889    
      6900   1.0102988      0.16445837     0.43958627     2.1189547      0.98386887     4030.4931    
      6910   1.0114525      0.16755759     0.44339345     2.1275911      0.98998328     4029.9507    
      6920   1.0143151      0.16934314     0.44428985     2.1345653      0.99578724     4029.6596    
      6930   1.0180024      0.17020751     0.44276835     2.1394371      1.0088888      4029.6207    
      6940   1.0217592      0.17054537     0.43977181     2.1424118      1.0080805      4029.8191    
      6950   1.0245383      0.17026205     0.4362914      2.1428152      1.0341448      4030.3821    
      6960   1.0252676      0.16958941     0.43310758     2.1400523      1.0196696      4031.323     
      6970   1.0235427      0.16877573     0.43072822     2.1342728      1.0298569      4032.3827    
      6980   1.0192102      0.16795087     0.42943264     2.1256559      1.0316539      4033.5636    
      6990   1.0127479      0.16677553     0.42910119     2.1144591      1.019417       4034.7432    
      7000   1.0052634      0.1651014      0.42919969     2.1016607      1.0362161      4035.6972    
      7010   0.99794912     0.16319836     0.42905679     2.0886473      1.0222525      4036.785     
      7020   0.9910756      0.1618306      0.42802514     2.0759412      1.0277692      4037.6927    
      7030   0.98532543     0.16125076     0.42585279     2.0645668      1.0155608      4038.4857    
      7040   0.98122432     0.16120054     0.42268592     2.0552003      1.0019616      4038.8224    
      7050   0.97873115     0.16122808     0.41906488     2.0478683      1.006507       4038.8772    
      7060   0.97806975     0.16108175     0.41551518     2.0431806      1.0041032      4038.876     
      7070   0.97905836     0.16047723     0.41232178     2.040865       1.0033556      4038.8569    
      7080   0.9814664      0.15971759     0.40961442     2.0410088      1.0107887      4039.0081    
      7090   0.98505988     0.15861583     0.40756054     2.0432415      1.0058328      4039.3187    
      7100   0.9891934      0.15768704     0.40652317     2.0474734      1.0163046      4039.65      
      7110   0.99290679     0.15691596     0.40699783     2.0527451      1.0187155      4040.1928    
      7120   0.99592916     0.15614012     0.40931965     2.058823       1.010033       4040.8855    
      7130   0.99841497     0.15500068     0.41344475     2.0655361      1.0242612      4041.4678    
      7140   1.0000859      0.15391457     0.41871563     2.0722263      1.0024324      4042.1368    
      7150   1.0015599      0.15389338     0.42369251     2.0793923      1.0218709      4042.5902    
      7160   1.0036514      0.15436052     0.42666741     2.0859705      1.0146251      4043.2177    
      7170   1.0077622      0.15453923     0.42645731     2.092103       1.017689       4043.8887    
      7180   1.0131825      0.15452415     0.42339774     2.097156       1.0176569      4044.6029    
      7190   1.0182278      0.15458527     0.4194033      2.1007878      1.0154589      4045.1998    
      7200   1.0205959      0.15499073     0.41693847     2.1022794      1.0228769      4045.889     
      7210   1.0186313      0.15619836     0.41742673     2.1010294      1.0035586      4046.5381    
      7220   1.013341       0.15827762     0.42032735     2.0980768      1.0100087      4046.9968    
      7230   1.0065973      0.16060372     0.42335697     2.0933205      1.011666       4047.1404    
      7240   1.0010727      0.16291482     0.42394739     2.087938       0.99457988     4047.0495    
      7250   0.99844532     0.16471122     0.42101464     2.082862       0.98835058     4046.6482    
      7260   0.99777385     0.16594726     0.41583848     2.077915       0.98985211     4046.0546    
      7270   0.99714786     0.16616373     0.41143427     2.0727886      0.98571053     4045.5566    
      7280   0.99501255     0.16566415     0.41076175     2.0684147      0.98412576     4044.9544    
      7290   0.99049319     0.16468796     0.41475502     2.0646551      0.97730401     4044.345     
      7300   0.98540449     0.16320592     0.42132944     2.0621172      0.97216184     4043.5444    
      7310   0.98245322     0.16172136     0.42655995     2.0614378      0.97670889     4042.5547    
      7320   0.98362543     0.16090131     0.42693878     2.0627543      0.97202906     4041.4975    
      7330   0.98937512     0.16101514     0.42166505     2.0662159      0.98948986     4040.5342    
      7340   0.99738222     0.16213718     0.41319265     2.0708719      0.997573       4040.0583    
      7350   1.0037723      0.16439221     0.40585221     2.0753682      1.0126834      4040.1026    
      7360   1.0062905      0.16711983     0.40341829     2.0794378      1.0083579      4040.4311    
      7370   1.0045291      0.16954863     0.40708405     2.0828913      1.0235292      4040.7848    
      7380   1.0003221      0.17066841     0.41497889     2.0855976      1.0120798      4041.118     
      7390   0.99718902     0.16997999     0.423286       2.0885183      1.0079577      4041.2228    
      7400   0.9974318      0.16752345     0.42830731     2.0914472      0.99230705     4040.9736    
      7410   1.0023602      0.1638242      0.42825348     2.095084       0.99475246     4040.5585    
      7420   1.0101633      0.1595298      0.42386957     2.0981062      0.98793982     4040.1928    
      7430   1.018342       0.15531634     0.41783269     2.1001196      0.98226241     4039.9209    
      7440   1.023427       0.15171697     0.41335396     2.0996663      1.011575       4039.6542    
      7450   1.0238431      0.148635       0.4126489      2.0965032      0.98913203     4039.5801    
      7460   1.0191592      0.14652222     0.41587545     2.0905936      0.98781698     4039.1625    
      7470   1.0105258      0.14600717     0.42133464     2.0825922      0.97534076     4038.5894    
      7480   1.0004011      0.14698708     0.42631469     2.0733706      0.96326869     4037.6639    
      7490   0.99167235     0.1488474      0.42859373     2.0644214      0.96450981     4036.3433    
      7500   0.98572975     0.1507677      0.42759091     2.0564282      0.9598123      4035.0459    
      7510   0.98255871     0.15249275     0.42442199     2.0502294      0.97197468     4033.7335    
      7520   0.98073114     0.15397121     0.42129411     2.0458396      0.97946122     4032.8872    
      7530   0.97916053     0.15527394     0.42024995     2.0437431      0.99152542     4032.4349    
      7540   0.97723891     0.15645274     0.42224306     2.0440336      0.998478       4032.3843    
      7550   0.97558048     0.15726217     0.4266329      2.0467461      1.0152217      4032.4624    
      7560   0.97557153     0.15754794     0.43162249     2.0520081      1.0197381      4032.868     
      7570   0.97876731     0.15741359     0.43518609     2.0602293      1.0287054      4033.5894    
      7580   0.98582751     0.15684907     0.43595692     2.0710221      1.034122       4034.6398    
      7590   0.99585446     0.1562322      0.43356964     2.0830531      1.0520552      4036.1881    
      7600   1.0078033      0.15599955     0.42847698     2.0956447      1.0739702      4038.1969    
      7610   1.0197052      0.15597        0.42172853     2.1067131      1.0704226      4040.8979    
      7620   1.0302919      0.15608037     0.41475872     2.1157281      1.0913964      4043.7209    
      7630   1.0374019      0.15615263     0.40933193     2.1210349      1.0856393      4046.9145    
      7640   1.0395149      0.15612126     0.40702724     2.1218672      1.0921156      4050.2929    
      7650   1.0356867      0.15630466     0.40875536     2.1180385      1.0743828      4053.1692    
      7660   1.0259829      0.15690627     0.41439848     2.1097326      1.0494603      4055.5757    
      7670   1.0127334      0.15787906     0.42237965     2.0988193      1.0241184      4057.0555    
      7680   0.9988305      0.15916323     0.43004416     2.0869211      1.0042816      4057.6267    
      7690   0.98707081     0.16070256     0.4345897      2.0753727      0.98768145     4057.3925    
      7700   0.97993922     0.16223825     0.43428547     2.0659106      0.9825199      4056.6655    
      7710   0.9775173      0.16379353     0.42926261     2.0588114      0.9800356      4056.0276    
      7720   0.9785145      0.16553065     0.42137499     2.0541562      0.99347679     4055.5216    
      7730   0.98123196     0.16700929     0.41342025     2.0517548      1.0025203      4055.4034    
      7740   0.98424276     0.16777512     0.40783688     2.0514519      1.0178392      4055.7477    
      7750   0.98657737     0.16780464     0.40562841     2.0527736      1.0141093      4056.2957    
      7760   0.9884821      0.16721496     0.40628263     2.0556942      1.021187       4056.9629    
      7770   0.99073421     0.16629069     0.40841207     2.0602764      1.0352053      4057.8536    
      7780   0.99338955     0.16533288     0.41078372     2.0656718      1.0173414      4059.0079    
      7790   0.99674711     0.16431585     0.41293862     2.0718442      1.0370676      4060.116     
      7800   1.0004977      0.16326988     0.41507415     2.0785576      1.0341164      4061.2833    
      7810   1.0037085      0.16228188     0.41755521     2.0848652      1.0168439      4062.3601    
      7820   1.0065187      0.16136351     0.42048952     2.0910949      1.0016279      4063.0143    
      7830   1.0087432      0.16024228     0.42362636     2.0964461      0.99831248     4063.3667    
      7840   1.0112264      0.1584511      0.42631739     2.1010694      0.99767275     4063.4514    
      7850   1.0142087      0.15578071     0.42779626     2.1043498      0.98605501     4063.2252    
      7860   1.0174509      0.15279703     0.42765254     2.106084       0.97048099     4062.6318    
      7870   1.0202533      0.14960772     0.42617066     2.1056149      0.98351544     4062.0449    
      7880   1.0217599      0.14661643     0.42409536     2.1028074      0.98353879     4061.3983    
      7890   1.0212282      0.1441736      0.42211268     2.0975847      0.97494808     4060.5984    
      7900   1.0182482      0.14237869     0.42031178     2.0895204      0.97381664     4059.819     
      7910   1.0137734      0.14137811     0.41800132     2.0794995      0.97190896     4058.928     
      7920   1.0088443      0.1408608      0.41430838     2.0678983      0.9597852      4057.8948    
      7930   1.0040254      0.14069468     0.40905963     2.0552575      0.97241811     4056.8463    
      7940   0.99877483     0.14107885     0.40341887     2.042128       0.96714851     4055.9223    
      7950   0.99245319     0.14175535     0.39954253     2.029449       0.98055056     4055.1493    
      7960   0.9842431      0.14227707     0.39939726     2.0175147      0.9698642      4054.3721    
      7970   0.97496349     0.14245922     0.40347297     2.0078581      0.96905118     4053.3727    
      7980   0.96614122     0.14228592     0.41028561     2.0012687      0.95975578     4052.0706    
      7990   0.96012246     0.14191086     0.41691794     1.9985011      0.94551241     4050.5264    
      8000   0.95955373     0.14140097     0.42035755     2.000578       0.94268304     4048.5141    
      8010   0.96527781     0.14090164     0.41903799     2.0073422      0.94810883     4046.2809    
      8020   0.97628358     0.14063391     0.41358018     2.0181194      0.94053115     4044.2002    
      8030   0.99005217     0.14068758     0.40646907     2.0317075      0.94165275     4042.2389    
      8040   1.0031203      0.14140803     0.40089106     2.0464453      0.96412599     4040.5808    
      8050   1.0129544      0.14291742     0.39924258     2.061052       0.97157632     4039.3625    
      8060   1.0184042      0.14483403     0.40192297     2.0738209      0.96894144     4038.4537    
      8070   1.020581       0.14707832     0.40713236     2.0845386      0.98365437     4037.6423    
      8080   1.0209754      0.14980901     0.41204453     2.0927728      0.97272288     4036.9432    
      8090   1.0211428      0.15281027     0.41452897     2.0985096      0.98365741     4036.1927    
      8100   1.0212139      0.15564699     0.41456206     2.1014859      0.98780459     4035.4352    
      8110   1.0201503      0.15795044     0.41418235     2.1018148      0.97257728     4034.6621    
      8120   1.0168871      0.15906646     0.41600456     2.0998599      0.96547359     4033.7708    
      8130   1.0109508      0.15891269     0.42137541     2.0961758      0.95393413     4032.533     
      8140   1.0029536      0.15761091     0.42943624     2.0909433      0.9469014      4030.8244    
      8150   0.99567296     0.15544623     0.43744972     2.085875       0.92903983     4028.7399    
      8160   0.99139153     0.15263901     0.4421365      2.0813347      0.93156915     4026.3595    
      8170   0.99189224     0.14930434     0.44127211     2.0778865      0.92237666     4023.6931    
      8180   0.99664021     0.14613359     0.43486358     2.0754266      0.92593776     4021.0515    
      8190   1.0033181      0.1436095      0.42511936     2.0731716      0.92960725     4018.7963    
      8200   1.0092197      0.14190093     0.41540962     2.0706025      0.94478084     4016.9039    
      8210   1.011554       0.14106716     0.40884642     2.0667057      0.94899872     4015.1808    
      8220   1.0087877      0.14137062     0.40718845     2.0612032      0.95814581     4013.7925    
      8230   1.001537       0.14291974     0.41019798     2.0548897      0.95499876     4012.4313    
      8240   0.99134075     0.14582651     0.41608939     2.048399       0.95591614     4011.0327    
      8250   0.98064233     0.14986826     0.42245684     2.0427662      0.95306439     4009.6083    
      8260   0.97260202     0.1543116      0.42720593     2.0399025      0.95802717     4008.0248    
      8270   0.96879289     0.15807427     0.42932115     2.0400687      0.95547507     4006.5582    
      8280   0.97036087     0.16016584     0.4288354      2.0440257      0.9562955      4005.3747    
      8290   0.97662367     0.16018319     0.42648577     2.0510842      0.98397236     4004.4713    
      8300   0.98638734     0.15808822     0.42332663     2.0604705      0.99718951     4004.0456    
      8310   0.99795671     0.15480492     0.4204196      2.071628       0.99899063     4004.2504    
      8320   1.0089161      0.15146845     0.4187026      2.0830077      1.0024167      4004.6829    
      8330   1.0173373      0.14884662     0.41894448     2.0932552      1.0203871      4005.2476    
      8340   1.0223627      0.14719768     0.42151185     2.101709       1.0194626      4005.927     
      8350   1.0233913      0.14661409     0.42594808     2.107104       1.0036371      4006.5167    
      8360   1.0215722      0.14697361     0.43095611     2.1097439      1.0228877      4007.2003    
      8370   1.0184097      0.14802926     0.43469651     2.1097979      1.0096481      4007.578     
      8380   1.0156397      0.14904113     0.43569024     2.1076499      1.0087165      4007.9575    
      8390   1.0139041      0.14998124     0.4334747      2.103772       1.0205861      4008.2049    
      8400   1.0125138      0.1509759      0.4289228      2.09813        1.0005848      4008.4857    
      8410   1.0105211      0.15179432     0.42379464     2.0908323      1.0079842      4008.8324    
      8420   1.0073619      0.15229889     0.41987937     2.0826845      1.0113052      4009.1427    
      8430   1.0021612      0.15264531     0.41815358     2.0735068      0.99404219     4009.2825    
      8440   0.99582194     0.1527076      0.41843728     2.0643474      0.98636525     4009.0933    
      8450   0.98908947     0.15268073     0.41978008     2.0555682      0.98183434     4008.7089    
      8460   0.98382902     0.15240904     0.421008       2.0486365      0.97235722     4007.9585    
      8470   0.98048983     0.15197365     0.42125426     2.0434404      0.96579994     4006.9317    
      8480   0.97944688     0.15180335     0.42013902     2.040591       0.96635691     4005.7123    
      8490   0.98077988     0.1518413      0.41786129     2.04035        0.97328434     4004.3844    
      8500   0.98375097     0.15213109     0.41518943     2.042423       0.96076678     4003.2643    
      8510   0.98727008     0.15284371     0.41316392     2.0463869      0.96144607     4001.9766    
      8520   0.9906362      0.15371025     0.41270462     2.0518415      0.97261714     4000.8052    
      8530   0.99340368     0.15475476     0.41401466     2.0583458      0.98193898     3999.6752    
      8540   0.99534184     0.15663429     0.41655267     2.0656695      0.97093901     3999.0044    
      8550   0.9967491      0.1594639      0.41919186     2.0732485      0.99539053     3998.2946    
      8560   0.99849852     0.16282536     0.42105756     2.0810988      0.98892669     3998.0907    
      8570   1.0011947      0.16603057     0.42186496     2.0891543      1.0084748      3998.1938    
      8580   1.0050061      0.16783858     0.4221398      2.0969522      1.0150517      3998.7568    
      8590   1.0092879      0.16768016     0.42277637     2.1038508      1.0287908      3999.6902    
      8600   1.0132517      0.16587141     0.42440842     2.1096177      1.0416681      4000.78      
      8610   1.0158859      0.16335572     0.42701576     2.1136591      1.0346976      4001.8734    
      8620   1.0172402      0.16089693     0.42984608     2.1160615      1.0410658      4003.0786    
      8630   1.0172303      0.1592354      0.43184185     2.1163808      1.0387677      4004.3149    
      8640   1.0158581      0.15892042     0.43219378     2.1143602      1.0388368      4005.5426    
      8650   1.013493       0.15974545     0.43081469     2.1102597      1.0401597      4006.7115    
      8660   1.0108135      0.16060405     0.42852431     2.1048101      1.0340417      4008.0085    
      8670   1.0071373      0.16067033     0.42670906     2.0975489      1.0474291      4009.5148    
      8680   1.0024887      0.16006989     0.42661806     2.0898871      1.0390444      4010.963     
      8690   0.99660443     0.15910934     0.42852996     2.0820151      1.0288254      4012.1322    
      8700   0.99087891     0.15745711     0.43153338     2.074781       1.0306401      4013.0122    
      8710   0.98647856     0.1556301      0.43391052     2.068733       1.010559       4013.6108    
      8720   0.98438657     0.15416371     0.43390734     2.0641266      1.0134715      4014.0652    
      8730   0.98557451     0.15307666     0.430668       2.0615814      1.0330801      4014.5693    
      8740   0.98913792     0.15233849     0.42477394     2.0602924      1.0273884      4015.641     
      8750   0.99366369     0.15198503     0.41814341     2.0600947      1.0499323      4016.9264    
      8760   0.99732438     0.15192476     0.41334492     2.060725       1.0445099      4018.6566    
      8770   0.99867992     0.15196889     0.41215607     2.0616129      1.0702532      4020.6627    
      8780   0.99765848     0.15217307     0.41466791     2.0627973      1.0546632      4022.7104    
      8790   0.9949798      0.15287229     0.41939631     2.0642083      1.0511193      4024.8702    
      8800   0.99227454     0.15391527     0.42423514     2.0660337      1.0551899      4026.7368    
      8810   0.99114613     0.15484257     0.42774561     2.0687794      1.0451798      4028.4796    
      8820   0.99213612     0.15545081     0.42967102     2.0727975      1.0471375      4029.8676    
      8830   0.99486256     0.15568972     0.43061663     2.0780703      1.0191961      4031.0989    
      8840   0.9986823      0.15569948     0.43110329     2.0842943      1.0090439      4032.0268    
      8850   1.0033916      0.1551748      0.43099739     2.0907251      1.0156781      4032.5657    
      8860   1.0091846      0.15388167     0.42977311     2.0968942      1.0066942      4032.9281    
      8870   1.0156583      0.15174823     0.42721456     2.1019092      1.0110145      4033.0814    
      8880   1.0215485      0.14890472     0.42410144     2.1047847      0.99952815     4033.2123    
      8890   1.0256165      0.14544685     0.42193187     2.1052572      0.99631607     4033.2412    
      8900   1.0258889      0.142195       0.42206641     2.1025483      0.99808439     4032.9711    
      8910   1.0215745      0.14016705     0.42488144     2.096866       0.97875038     4032.6445    
      8920   1.0129523      0.14042127     0.4294491      2.0887593      0.97151252     4031.84      
      8930   1.0020822      0.14288575     0.43410135     2.0795766      0.9572892      4030.5948    
      8940   0.99108746     0.14691153     0.43710938     2.0701242      0.94849025     4029.0699    
      8950   0.9822479      0.15154789     0.43743117     2.0618277      0.96858236     4027.4311    
      8960   0.97685704     0.15544722     0.43525122     2.0554637      0.96203056     4026.2317    
      8970   0.97530921     0.15785826     0.43169732     2.0519999      0.9745856      4025.0905    
      8980   0.97644629     0.15848469     0.42833825     2.0509722      0.99892013     4024.3856    
      8990   0.97960887     0.15737849     0.426189       2.052459       1.0029076      4024.0934    
      9000   0.98457545     0.15490839     0.42528103     2.0565281      1.0092566      4024.2471    
      9010   0.99077217     0.15193896     0.42470131     2.0622708      0.99968218     4024.4257    
      9020   0.99796841     0.14919671     0.42346227     2.06908        1.0179395      4024.6196    
      9030   1.0053411      0.14726194     0.4214133      2.0761514      0.99967326     4024.8878    
      9040   1.0115012      0.14639517     0.41959456     2.0827027      1.0047794      4025.0485    
      9050   1.0148678      0.14650966     0.41981012     2.0880809      0.99730312     4025.0231    
      9060   1.0141142      0.14760392     0.42334092     2.091576       1.0021328      4025.0077    
      9070   1.0096702      0.14962889     0.42966975     2.0932661      0.99963458     4025.1536    
      9080   1.0034339      0.15273744     0.43620744     2.0935612      1.0015329      4025.2426    
      9090   0.99894265     0.1564766      0.4396559      2.0940144      1.0024097      4025.2688    
      9100   0.9975279      0.1603904      0.43812204     2.0942729      1.0087341      4025.5162    
      9110   0.99957213     0.16399884     0.43219691     2.0950215      1.0223514      4025.9438    
      9120   1.0030637      0.16651698     0.42467759     2.0952558      1.0146748      4026.9118    
      9130   1.0061233      0.16765781     0.4190052      2.095312       1.0356728      4027.8703    
      9140   1.0067882      0.16710281     0.41774653     2.0944953      1.0328777      4029.0203    
      9150   1.0046399      0.16507265     0.42131513     2.0928125      1.0289374      4030.0838    
      9160   1.0007835      0.16218287     0.42778589     2.0906109      1.0302534      4030.9902    
      9170   0.99729929     0.15960288     0.43379446     2.088815       1.0188916      4031.6442    
      9180   0.99591046     0.15776269     0.43623236     2.0873303      1.0072931      4032.0935    
      9190   0.99753207     0.15655626     0.43387116     2.0861942      1.0110433      4032.4834    
      9200   1.0011946      0.1564035      0.42789732     2.0855594      1.0228155      4033.039     
      9210   1.0046859      0.15700053     0.42104078     2.0845349      1.019127       4033.7215    
      9220   1.0061464      0.15802691     0.41601991     2.0827305      1.0349715      4034.5335    
      9230   1.0051188      0.15897532     0.41399711     2.0801152      1.0311067      4035.58      
      9240   1.0026644      0.1594501      0.41415966     2.0770723      1.0230517      4036.5662    
      9250   0.99996601     0.15975909     0.41452789     2.0737033      1.0289257      4037.4142    
      9260   0.99835481     0.15980294     0.41340037     2.0702037      1.0195189      4038.1047    
      9270   0.99847315     0.15963749     0.41046384     2.0672792      1.0156411      4038.5826    
      9280   0.99906259     0.15951566     0.40702995     2.0646073      1.0054933      4038.9212    
      9290   0.99868592     0.15942436     0.40520556     2.0621268      0.99375045     4038.9409    
      9300   0.99650397     0.15908326     0.40655281     2.0598612      0.99131793     4038.6485    
      9310   0.9930924      0.1582767      0.41091305     2.0582994      0.97786854     4037.8919    
      9320   0.98968153     0.1571116      0.41632152     2.0574283      0.95969637     4036.8244    
      9330   0.98887556     0.15539847     0.42000341     2.0581885      0.95064318     4035.4024    
      9340   0.99166192     0.15328215     0.41998282     2.0602296      0.94322633     4033.727     
      9350   0.99767196     0.15101028     0.41617895     2.0631657      0.94768824     4031.953     
      9360   1.0048234      0.14911272     0.41038794     2.0662005      0.94388074     4030.1787    
      9370   1.0105085      0.14825261     0.40534647     2.0688236      0.95913319     4028.6184    
      9380   1.0125147      0.14841188     0.4032891      2.0699337      0.96634274     4027.207     
      9390   1.0105773      0.14923659     0.40495731     2.0695216      0.95195007     4025.9469    
      9400   1.0059172      0.15044714     0.40937809     2.0681652      0.96200161     4024.816     
      9410   1.0003199      0.15167433     0.41447579     2.0660971      0.96016793     4023.5429    
      9420   0.99582248     0.15237753     0.41819189     2.0637727      0.96213911     4022.22      
      9430   0.99383594     0.15239384     0.41936188     2.0619802      0.96473382     4020.8636    
      9440   0.99421299     0.15224336     0.41799672     2.06103        0.95929014     4019.4393    
      9450   0.99618878     0.15190532     0.41506492     2.0607228      0.95430543     4017.9756    
      9460   0.99873254     0.15130767     0.41198127     2.0608558      0.97073396     4016.7964    
      9470   1.0006414      0.15066083     0.40998897     2.061079       0.96656067     4015.6413    
      9480   1.0010431      0.15016317     0.40988555     2.0610802      0.97644018     4014.6575    
      9490   0.99988724     0.15003491     0.41184924     2.0611824      0.95907023     4013.6422    
      9500   0.99727471     0.15034411     0.4155795      2.0613044      0.96492726     4012.5601    
      9510   0.9940737      0.15087914     0.42019908     2.0616592      0.95665462     4011.2969    
      9520   0.99128622     0.15194061     0.42440971     2.0627516      0.95367374     4010.0736    
      9530   0.99016747     0.15380355     0.42667916     2.0652065      0.96194564     4008.8661    
      9540   0.99140814     0.1563051      0.42575097     2.0686402      0.98207492     4007.8833    
      9550   0.99531904     0.15899127     0.42127306     2.0727127      0.9956783      4007.3991    
      9560   1.0010494      0.16195469     0.4141325      2.077128       1.0071786      4007.3155    
      9570   1.0072642      0.164791       0.40631958     2.0814703      1.0355348      4007.9304    
      9580   1.0120503      0.16656671     0.40026545     2.0843686      1.0468586      4009.2202    
      9590   1.0140379      0.16714759     0.39816672     2.085831       1.0418662      4010.8477    
      9600   1.0119306      0.16712476     0.40115749     2.0856391      1.0496856      4012.5012    
      9610   1.0063591      0.16670643     0.40872299     2.084432       1.0385353      4014.0853    
      9620   0.99847149     0.16627649     0.41862987     2.0820817      1.0363147      4015.4649    
      9630   0.9912985      0.16611962     0.42764729     2.0801866      1.0297665      4016.4295    
      9640   0.98724465     0.16609613     0.43291775     2.079355       1.0117326      4017.2222    
      9650   0.98786276     0.16579417     0.43323296     2.0802951      1.0141654      4017.7847    
      9660   0.99221485     0.16503441     0.42966075     2.0824889      1.0103116      4018.3342    
      9670   0.99808375     0.16392663     0.42494607     2.0854667      1.0268244      4019.0986    
      9680   1.0032374      0.16246572     0.4220135      2.0888009      1.0230167      4019.9229    
      9690   1.0059338      0.16060928     0.42252715     2.0915013      1.0372767      4020.7294    
      9700   1.006189       0.15885547     0.42616096     2.0937639      1.0238273      4021.4738    
      9710   1.0045565      0.15783189     0.43101935     2.0951509      1.0146925      4021.9555    
      9720   1.0026102      0.15771905     0.43500452     2.0961049      1.0128075      4022.2943    
      9730   1.001328       0.15816162     0.43703259     2.0966529      1.0127534      4022.6149    
      9740   1.0012406      0.15865436     0.4375287      2.0975107      1.0179178      4023.0542    
      9750   1.0007902      0.15931418     0.43770329     2.0976697      1.0187791      4023.7104    
      9760   0.99960415     0.16052912     0.43843856     2.0978414      1.0188722      4024.3686    
      9770   0.99813571     0.16218875     0.43967821     2.0985388      1.0181696      4024.8905    
      9780   0.99682037     0.16382964     0.44058835     2.0991176      1.007992       4025.4363    
      9790   0.99697932     0.16474634     0.44027756     2.0999618      1.030168       4026.0244    
      9800   0.99900554     0.16472386     0.43838273     2.1010828      1.0130168      4026.6951    
      9810   1.0021576      0.16434134     0.43528804     2.1023319      1.0203771      4027.4144    
      9820   1.0054274      0.16401491     0.43187442     2.1034949      1.0384847      4028.0695    
      9830   1.0074184      0.16388088     0.42910376     2.1035756      1.0371752      4029.1853    
      9840   1.0081174      0.16410108     0.42734369     2.1030839      1.0420603      4030.5353    
      9850   1.0073465      0.16466298     0.4262814      2.1014276      1.0413887      4032.0603    
      9860   1.005986       0.16540036     0.42520156     2.0990451      1.0469579      4033.4309    
      9870   1.004727       0.16562543     0.42370633     2.0958871      1.0289816      4034.8478    
      9880   1.0035401      0.1654039      0.42205495     2.0922345      1.037906       4036.0315    
      9890   1.0020139      0.16445668     0.42119046     2.0881342      1.0246724      4037.304     
      9900   0.99948591     0.16293894     0.4220155      2.0836509      1.0110465      4038.2996    
      9910   0.99631147     0.16117544     0.42471622     2.0798281      1.01627        4039.0613    
      9920   0.99253072     0.15951567     0.42829879     2.0760819      1.0091759      4039.3745    
      9930   0.99001437     0.15786222     0.43091296     2.0732694      0.99951073     4039.4528    
      9940   0.99039839     0.15607445     0.43069992     2.0718444      0.9897424      4039.3109    
      9950   0.99411576     0.15430752     0.42691378     2.0718654      0.99661003     4038.9436    
      9960   0.99975784     0.15263647     0.42059759     2.0723383      1.0058748      4038.6509    
      9970   1.0052981      0.1513361      0.414309       2.0730568      0.98400493     4038.3797    
      9980   1.0080823      0.15070254     0.41092947     2.0732184      0.97507689     4037.9645    
      9990   1.0064604      0.1508166      0.41215724     2.0721284      0.97772039     4037.1593    
     10000   1.0017888      0.15110097     0.41748867     2.0707392      0.95900598     4036.0573    
Loop time of 17.2488 on 1 procs for 10000 steps with 2816 atoms

Performance: 500905.263 tau/day, 579.751 timesteps/s, 1.633 Matom-step/s
97.4% CPU use with 1 MPI tasks x 1 OpenMP threads

MPI task timing breakdown:
Section |  min time  |  avg time  |  max time  |%varavg| %total
---------------------------------------------------------------
Pair    | 10.281     | 10.281     | 10.281     |   0.0 | 59.60
Bond    | 0.60586    | 0.60586    | 0.60586    |   0.0 |  3.51
Neigh   | 2.4046     | 2.4046     | 2.4046     |   0.0 | 13.94
Comm    | 0.28889    | 0.28889    | 0.28889    |   0.0 |  1.67
Output  | 2.8464     | 2.8464     | 2.8464     |   0.0 | 16.50
Modify  | 0.70078    | 0.70078    | 0.70078    |   0.0 |  4.06
Other   |            | 0.1212     |            |       |  0.70

Nlocal:           2816 ave        2816 max        2816 min
Histogram: 1 0 0 0 0 0 0 0 0 0
Nghost:           3320 ave        3320 max        3320 min
Histogram: 1 0 0 0 0 0 0 0 0 0
Neighs:          46332 ave       46332 max       46332 min
Histogram: 1 0 0 0 0 0 0 0 0 0

Total # of neighbors = 46332
Ave neighs/atom = 16.453125
Ave special neighs/atom = 3
Neighbor list builds = 478
Dangerous builds = 47
unfix 1
undump traj
reset_timestep 0

# -------------------------------------
write_restart equilibriation.state
System init for write_restart ...
Generated 0 of 15 mixed pair_coeff terms from geometric mixing rule
write_data equilibriated.data
System init for write_data ...
Generated 0 of 15 mixed pair_coeff terms from geometric mixing rule
Total wall time: 0:00:17
