LAMMPS (22 Jul 2025)
OMP_NUM_THREADS environment is not set. Defaulting to 1 thread.
  using 1 OpenMP thread(s) per MPI task
# Units, atoms, boundary condition
units lj
atom_style full
boundary p p p

# Bead Interaction
pair_style hybrid/overlay dpd 1.0 1.0 123 coul/slater/cut 1.185307217552 2.0
bond_style harmonic
angle_style cosine/squared
#kspace_style pppm 1.0e-2

# Load data, allow velocity communication (needed for dpd)
read_data /home/gabriel/Dokumente/bachelor_thesis/dpd_simulation/lipid_self_assembly/setup/lammps.data
Reading data file ...
  orthogonal box = (0 0 0) to (90 90 90)
  1 by 1 by 1 MPI processor grid
  reading atoms ...
  11264 atoms
  scanning bonds ...
  2 = max bonds/atom
  scanning angles ...
  2 = max angles/atom
  orthogonal box = (0 0 0) to (90 90 90)
  1 by 1 by 1 MPI processor grid
  reading bonds ...
  5632 bonds
  reading angles ...
  4096 angles
Finding 1-2 1-3 1-4 neighbors ...
  special bond factors lj:    0        0        0       
  special bond factors coul:  0        0        0       
     3 = max # of 1-2 neighbors
     3 = max # of 1-3 neighbors
     6 = max # of 1-4 neighbors
     8 = max # of special neighbors
  special bonds CPU = 0.003 seconds
  read_data CPU = 0.059 seconds
include pair.settings
pair_coeff 4 4 dpd 102.067126235101 4.5 1 # W - W
pair_coeff 4 1 dpd 130.61559292165586 4.5 1 # W - C1
pair_coeff 4 2 dpd 121.73384773028323 4.5 1 # W - C3
pair_coeff 4 3 dpd 108.4112299432243 4.5 1 # W - Na
pair_coeff 4 5 dpd 84.93804622316809 4.5 1 # W - Q0
pair_coeff 4 6 dpd 94.45420178535304 4.5 1 # W - Qa
pair_coeff 6 6 dpd 102.067126235101 4.5 1 # Qa - Qa
pair_coeff 6 1 dpd 130.61559292165586 4.5 1 # Qa - C1
pair_coeff 6 2 dpd 126.80913069678189 4.5 1 # Qa - C3
pair_coeff 6 3 dpd 108.4112299432243 4.5 1 # Qa - Na
pair_coeff 6 5 dpd 98.89507438103935 4.5 1 # Qa - Q0
pair_coeff 5 5 dpd 102.067126235101 4.5 1 # Q0 - Q0
pair_coeff 5 1 dpd 121.09943735947091 4.5 1 # Q0 - C1
pair_coeff 5 2 dpd 117.29297513459693 4.5 1 # Q0 - C3
pair_coeff 5 3 dpd 98.89507438103935 4.5 1 # Q0 - Na
pair_coeff 3 3 dpd 102.067126235101 4.5 1 # Na - Na
pair_coeff 3 1 dpd 115.38974402215993 4.5 1 # Na - C1
pair_coeff 3 2 dpd 115.38974402215993 4.5 1 # Na - C3
pair_coeff 2 2 dpd 102.067126235101 4.5 1 # C3 - C3
pair_coeff 2 1 dpd 102.067126235101 4.5 1 # C3 - C1
pair_coeff 1 1 dpd 102.067126235101 4.5 1 # C1 - C1
pair_coeff * * coul/slater/cut
dielectric 78.3

bond_coeff 1 150.0 0.5

angle_coeff 1 5.0 180.0
angle_coeff 2 5.0 180.0

comm_modify vel yes

# Naming, Build neighbors every step if something has changed
include group.settings
group lipid id 1:1536
1536 atoms in group lipid
group solvent id 361:2816
2456 atoms in group solvent
neigh_modify delay 0 check yes

# Show values every 500, warn if atom is lost (moves more than a box length)
thermo 2000
thermo_modify lost warn flush yes

# Set veloceties and timestep
velocity all create 1.0 123 dist gaussian
timestep 0.01

# Step 1: minimize system energy
#minimize 1.0e-4 1.0e-6 10000 100000
#reset_timestep 0


# ====================================
# Step 2: relax in npt (T=1, P=1)
# ====================================
fix 1 all npt temp 1.0 1.0 0.5 iso 0.024 0.024 0.5
dump traj_npt all custom 10 trajectories_npt.lammpstrj id mol type xu yu zu
dump_modify traj_npt sort id

run 100000
Generated 0 of 15 mixed pair_coeff terms from geometric mixing rule
Neighbor list info ...
  update: every = 1 steps, delay = 0 steps, check = yes
  max neighbors/atom: 2000, page size: 100000
  master list distance cutoff = 2.3
  ghost atom cutoff = 2.3
  binsize = 1.15, bins = 79 79 79
  2 neighbor lists, perpetual/occasional/extra = 2 0 0
  (1) pair dpd, perpetual
      attributes: half, newton on
      pair build: half/bin/newton
      stencil: half/bin/3d
      bin: standard
  (2) pair coul/slater/cut, perpetual
      attributes: half, newton on, cut 2.3
      pair build: half/bin/newton
      stencil: half/bin/3d
      bin: standard
Per MPI rank memory allocation (min/avg/max) = 12.82 | 12.82 | 12.82 Mbytes
   Step          Temp          E_pair         E_mol          TotEng         Press          Volume    
         0   1              5.6659726e-07  3919.169       3920.6688     -41.664959      729000       
      2000   0.99918983     0.036067855    0.74475588     2.2794754      0.085555684    42010.032    
      4000   1.0146006      0.032850325    0.68115566     2.2357718      0.079484396    56244.111    
      6000   1.0046373      0.026368437    0.67943371     2.2126242      0.060843664    71290.186    
      8000   1.0120313      0.022738418    0.68925692     2.2299076      0.04490551     86784.453    
     10000   0.99258459     0.022068245    0.67327926     2.1840922      0.035072594    101049.93    
     12000   0.98219703     0.025175176    0.66828165     2.1666216      0.031703373    113414.29    
     14000   1.0034558      0.022679801    0.65404506     2.1817749      0.029275291    124783.07    
     16000   0.99027684     0.022916466    0.64007186     2.1482717      0.026403506    134038.9     
     18000   1.0099162      0.020731881    0.6369659      2.1724375      0.029543568    141499.79    
     20000   0.99537504     0.020973419    0.61751086     2.1314143      0.024951998    148687.64    
     22000   1.0002893      0.016150828    0.62255884     2.1390104      0.024850789    155662.44    
     24000   0.99641425     0.018680089    0.62138613     2.1345549      0.024877399    160549.6     
     26000   0.97884365     0.020321661    0.59300772     2.0814645      0.024347492    166100.89    
     28000   1.0012072      0.016699394    0.59529726     2.1136742      0.02606396     170605.41    
     30000   0.99199689     0.022301754    0.58093967     2.0911047      0.025356079    174497.69    
     32000   1.0055251      0.019672078    0.57256792     2.1003937      0.02683008     178094.26    
     34000   1.0020311      0.018222915    0.57890448     2.1000406      0.025637761    182532.09    
     36000   0.99285643     0.015598356    0.55989813     2.0646489      0.024242983    185058.69    
     38000   1.0101468      0.017039577    0.56387367     2.095999       0.023967398    188532.23    
     40000   0.99592465     0.01861898     0.56727517     2.0796485      0.024286184    191436.32    
     42000   0.98716923     0.020470805    0.55812188     2.0592151      0.02436478     194439.36    
     44000   0.99756298     0.018886659    0.53549276     2.050591       0.02348186     198066.59    
     46000   1.0027933      0.018998235    0.53901677     2.0620714      0.024767752    200387.4     
     48000   0.99069774     0.017642836    0.53392987     2.0374874      0.022670335    203329       
     50000   1.0071806      0.017355647    0.52130794     2.0493004      0.023057681    205649.8     
     52000   1.0092924      0.019056935    0.52802545     2.0608866      0.02486461     207324.36    
     54000   1.0057284      0.015648566    0.512656       2.0367632      0.025644932    210101.45    
     56000   0.98647715     0.01739614     0.51591388     2.0128944      0.025085262    212492.28    
     58000   0.99082868     0.02138876     0.50463328     2.0121331      0.026072862    213847.67    
     60000   1.0056271      0.017056422    0.50976285     2.035126       0.025476127    215309.96    
     62000   0.99775875     0.017383466    0.50527231     2.019161       0.025144495    216488.92    
     64000   0.99460882     0.014773298    0.50512655     2.0116806      0.022506126    218337.43    
     66000   1.0013622      0.015561104    0.49250164     2.0099726      0.023805144    219425.46    
     68000   1.0077461      0.015180547    0.48554357     2.0122091      0.025767485    220944.05    
     70000   0.99469042     0.015519714    0.49593232     2.0033552      0.023553402    222463.72    
     72000   0.98877932     0.01512977     0.50314942     2.0013165      0.022426964    223420.53    
     74000   0.98715957     0.015515155    0.48662985     1.9827529      0.024403075    224627.13    
     76000   0.99982674     0.013806257    0.48322376     1.996637       0.022682999    225877.26    
     78000   1.0021248      0.015020955    0.48468287     2.0027576      0.02461659     226292.27    
     80000   1.0055886      0.013868382    0.47742883     1.9995463      0.023540383    227322.17    
     82000   0.99642547     0.015544347    0.48597201     1.9960219      0.022079893    228351.7     
     84000   1.0022914      0.01475801     0.4779849      1.9960465      0.02413867     229079.42    
     86000   0.99924629     0.016099568    0.46937165     1.9842076      0.025640448    230543.61    
     88000   0.99069738     0.01335421     0.47496218     1.9742305      0.023700545    232063.71    
     90000   1.0070043      0.01727456     0.47670842     2.0043554      0.02426571     232961.44    
     92000   0.98675604     0.015559558    0.46903368     1.9645959      0.022540623    233801.93    
     94000   1.003459       0.015338494    0.46999934     1.9903927      0.024665712    234301.47    
     96000   1.0005644      0.015536842    0.46294831     1.9791985      0.025174838    235478.84    
     98000   0.99632757     0.01405914     0.46808139     1.9764992      0.023190152    235705.96    
    100000   1.0030737      0.014496295    0.46446663     1.9834399      0.023442026    236100.32    
Loop time of 244.074 on 1 procs for 100000 steps with 11264 atoms

Performance: 353990.910 tau/day, 409.712 timesteps/s, 4.615 Matom-step/s
96.7% CPU use with 1 MPI tasks x 1 OpenMP threads

MPI task timing breakdown:
Section |  min time  |  avg time  |  max time  |%varavg| %total
---------------------------------------------------------------
Pair    | 72.987     | 72.987     | 72.987     |   0.0 | 29.90
Bond    | 20.385     | 20.385     | 20.385     |   0.0 |  8.35
Neigh   | 25.775     | 25.775     | 25.775     |   0.0 | 10.56
Comm    | 3.3112     | 3.3112     | 3.3112     |   0.0 |  1.36
Output  | 96.607     | 96.607     | 96.607     |   0.0 | 39.58
Modify  | 22.713     | 22.713     | 22.713     |   0.0 |  9.31
Other   |            | 2.296      |            |       |  0.94

Nlocal:          11264 ave       11264 max       11264 min
Histogram: 1 0 0 0 0 0 0 0 0 0
Nghost:           2670 ave        2670 max        2670 min
Histogram: 1 0 0 0 0 0 0 0 0 0
Neighs:          23539 ave       23539 max       23539 min
Histogram: 1 0 0 0 0 0 0 0 0 0

Total # of neighbors = 23539
Ave neighs/atom = 2.089755
Ave special neighs/atom = 3
Neighbor list builds = 4657
Dangerous builds = 47

unfix 1
undump traj_npt
reset_timestep 0

# =============================================
# Step 3: run nvt (T=1.5) in equilibriated box
# =============================================
fix 2 all nvt temp 1.0 1.5 0.5
dump traj_nvt all custom 10 trajectories_nvt.lammpstrj id mol type xu yu zu
dump_modify traj_nvt sort id

run 100000
Generated 0 of 15 mixed pair_coeff terms from geometric mixing rule
Per MPI rank memory allocation (min/avg/max) = 20.21 | 20.21 | 20.21 Mbytes
   Step          Temp          E_pair         E_mol          TotEng         Press     
         0   1.0030737      0.014496295    0.46446663     1.9834399      0.023484994  
      2000   1.0152109      0.0146882      0.46445263     2.001822       0.022742705  
      4000   1.0270757      0.014490573    0.47387249     2.0288399      0.025084832  
      6000   1.0410527      0.014982008    0.47768016     2.0541026      0.024393714  
      8000   1.046489       0.016029762    0.48019522     2.065819       0.024522613  
     10000   1.0523255      0.015864547    0.47251146     2.0667241      0.027297415  
     12000   1.0504971      0.016219671    0.47630233     2.0681277      0.025666014  
     14000   1.0674829      0.018055509    0.49437721     2.113515       0.025344833  
     16000   1.0866907      0.018246937    0.48157625     2.1297146      0.026244556  
     18000   1.0882287      0.017307665    0.49231022     2.141816       0.02546509   
     20000   1.1033479      0.017491256    0.49879916     2.1711653      0.027017697  
     22000   1.1007265      0.017362314    0.49419854     2.1625041      0.026708792  
     24000   1.1157451      0.015889724    0.49287878     2.1822376      0.029769785  
     26000   1.1204364      0.017355737    0.50382487     2.201686       0.028817062  
     28000   1.1455854      0.018263133    0.49803759     2.2345263      0.030392764  
     30000   1.156054       0.016518822    0.5110298      2.2614757      0.027499464  
     32000   1.1697679      0.016878298    0.50545182     2.2768263      0.030666863  
     34000   1.1665503      0.018781631    0.51756183     2.2860136      0.028843506  
     36000   1.1765894      0.017260621    0.52114996     2.303138       0.027761678  
     38000   1.1883181      0.017883094    0.52123014     2.3214322      0.030941453  
     40000   1.197527       0.022200614    0.5244481      2.3427797      0.030443908  
     42000   1.2106388      0.019636853    0.537293       2.3727268      0.031592842  
     44000   1.1997563      0.017725939    0.53201404     2.3492147      0.029016477  
     46000   1.2422746      0.01748073     0.53460582     2.415333       0.032126818  
     48000   1.251325       0.021658494    0.54481127     2.4432906      0.030608444  
     50000   1.2671085      0.016639736    0.5511177      2.4682515      0.030367796  
     52000   1.2553809      0.018208639    0.54283703     2.4439498      0.032751971  
     54000   1.2617008      0.020685833    0.53784607     2.4509151      0.032526294  
     56000   1.2781423      0.019918239    0.5664879      2.5034494      0.031059375  
     58000   1.2925421      0.019031593    0.56635944     2.5240321      0.032826226  
     60000   1.3281956      0.02134623     0.56289096     2.5763537      0.03524898   
     62000   1.2908866      0.018123289    0.5645396      2.5188209      0.030534365  
     64000   1.3288394      0.024310597    0.57536383     2.5927566      0.034583985  
     66000   1.3463202      0.021947486    0.57032495     2.6115734      0.035754733  
     68000   1.3361164      0.019106013    0.58650136     2.609604       0.03450231   
     70000   1.3460388      0.01647965     0.59111091     2.6264695      0.033986049  
     72000   1.3496953      0.025011111    0.59068356     2.6400579      0.036484192  
     74000   1.3707262      0.020414087    0.59514212     2.671463       0.034880911  
     76000   1.3717757      0.019688045    0.6030031      2.680172       0.033878722  
     78000   1.39633        0.023600267    0.60833378     2.7262431      0.03548719   
     80000   1.4033696      0.019552436    0.61142308     2.735843       0.035557463  
     82000   1.3957674      0.024342589    0.61229103     2.7300988      0.035042219  
     84000   1.4129385      0.023232215    0.62050106     2.7629529      0.035755902  
     86000   1.4341747      0.024375496    0.6297414      2.8051879      0.037107678  
     88000   1.4479804      0.021819153    0.63075018     2.8243471      0.035968942  
     90000   1.45207        0.019371246    0.62329399     2.8205768      0.035717492  
     92000   1.4635229      0.02296275     0.63233493     2.8503871      0.036697186  
     94000   1.4723812      0.024870502    0.62914398     2.8623902      0.039797715  
     96000   1.4999247      0.021365702    0.64038608     2.9114391      0.037920104  
     98000   1.4844289      0.023564993    0.64108946     2.8911001      0.038237764  
    100000   1.4842486      0.023742252    0.63542718     2.8853447      0.039904734  
Loop time of 213.816 on 1 procs for 100000 steps with 11264 atoms

Performance: 404085.908 tau/day, 467.692 timesteps/s, 5.268 Matom-step/s
96.9% CPU use with 1 MPI tasks x 1 OpenMP threads

MPI task timing breakdown:
Section |  min time  |  avg time  |  max time  |%varavg| %total
---------------------------------------------------------------
Pair    | 63.068     | 63.068     | 63.068     |   0.0 | 29.50
Bond    | 15.938     | 15.938     | 15.938     |   0.0 |  7.45
Neigh   | 20.052     | 20.052     | 20.052     |   0.0 |  9.38
Comm    | 3.0049     | 3.0049     | 3.0049     |   0.0 |  1.41
Output  | 97.042     | 97.042     | 97.042     |   0.0 | 45.39
Modify  | 12.43      | 12.43      | 12.43      |   0.0 |  5.81
Other   |            | 2.281      |            |       |  1.07

Nlocal:          11264 ave       11264 max       11264 min
Histogram: 1 0 0 0 0 0 0 0 0 0
Nghost:           2959 ave        2959 max        2959 min
Histogram: 1 0 0 0 0 0 0 0 0 0
Neighs:          23792 ave       23792 max       23792 min
Histogram: 1 0 0 0 0 0 0 0 0 0

Total # of neighbors = 23792
Ave neighs/atom = 2.1122159
Ave special neighs/atom = 3
Neighbor list builds = 4178
Dangerous builds = 0

unfix 2
undump traj_nvt
reset_timestep 0

# ============
# Save state
# ============
write_restart equilibriation.state
System init for write_restart ...
Generated 0 of 15 mixed pair_coeff terms from geometric mixing rule
write_data equilibriated.data
System init for write_data ...
Generated 0 of 15 mixed pair_coeff terms from geometric mixing rule
Total wall time: 0:07:39
